ODB Name,Step,Frame,Part Instance Name,    Node Label,X,Y,Z,Section Name,Material Name,Section Point,   COORD-COOR1,   COORD-COOR2,   COORD-COOR3,       S-Mises
C:/Users/touze/project/Shear_centre/strip/Job-1.odb,loading,Increment      1: Step Time =    1.000,"PART-1-1",          2562,  -20.0000E-03,     -500.E-03,            0.,NA,NA,"",  -20.0000E-03,     -500.E-03,            0.,   900.236E-03
C:/Users/touze/project/Shear_centre/strip/Job-1.odb,loading,Increment      1: Step Time =    1.000,"PART-1-1",          2560,  -20.0000E-03,  -400.000E-03,            0.,NA,NA,"",  -20.0000E-03,  -400.000E-03,            0.,   611.698E-03
C:/Users/touze/project/Shear_centre/strip/Job-1.odb,loading,Increment      1: Step Time =    1.000,"PART-1-1",          2559,  -20.0000E-03,  -350.000E-03,            0.,NA,NA,"",  -20.0000E-03,  -350.000E-03,            0.,   447.884E-03
C:/Users/touze/project/Shear_centre/strip/Job-1.odb,loading,Increment      1: Step Time =    1.000,"PART-1-1",          2558,  -20.0000E-03,  -300.000E-03,            0.,NA,NA,"",  -20.0000E-03,  -300.000E-03,            0.,   307.688E-03
C:/Users/touze/project/Shear_centre/strip/Job-1.odb,loading,Increment      1: Step Time =    1.000,"PART-1-1",          2557,  -20.0000E-03,     -250.E-03,            0.,NA,NA,"",  -20.0000E-03,     -250.E-03,            0.,   238.239E-03
C:/Users/touze/project/Shear_centre/strip/Job-1.odb,loading,Increment      1: Step Time =    1.000,"PART-1-1",          2556,  -20.0000E-03,  -200.000E-03,            0.,NA,NA,"",  -20.0000E-03,  -200.000E-03,            0.,   270.237E-03
C:/Users/touze/project/Shear_centre/strip/Job-1.odb,loading,Increment      1: Step Time =    1.000,"PART-1-1",          2555,  -20.0000E-03,  -150.000E-03,            0.,NA,NA,"",  -20.0000E-03,  -150.000E-03,            0.,   385.922E-03
C:/Users/touze/project/Shear_centre/strip/Job-1.odb,loading,Increment      1: Step Time =    1.000,"PART-1-1",          2554,  -20.0000E-03,  -100.000E-03,            0.,NA,NA,"",  -20.0000E-03,  -100.000E-03,            0.,   534.044E-03
C:/Users/touze/project/Shear_centre/strip/Job-1.odb,loading,Increment      1: Step Time =    1.000,"PART-1-1",          2553,  -20.0000E-03,  -50.0000E-03,            0.,NA,NA,"",  -20.0000E-03,  -50.0000E-03,            0.,   691.277E-03
C:/Users/touze/project/Shear_centre/strip/Job-1.odb,loading,Increment      1: Step Time =    1.000,"PART-1-1",          2552,  -20.0000E-03,            0.,            0.,NA,NA,"",  -20.0000E-03,            0.,            0.,   770.704E-03
C:/Users/touze/project/Shear_centre/strip/Job-1.odb,loading,Increment      1: Step Time =    1.000,"PART-1-1",          2551,  -20.0000E-03,   50.0000E-03,            0.,NA,NA,"",  -20.0000E-03,   50.0000E-03,            0.,   691.277E-03
C:/Users/touze/project/Shear_centre/strip/Job-1.odb,loading,Increment      1: Step Time =    1.000,"PART-1-1",          2550,  -20.0000E-03,   100.000E-03,            0.,NA,NA,"",  -20.0000E-03,   100.000E-03,            0.,   534.044E-03
C:/Users/touze/project/Shear_centre/strip/Job-1.odb,loading,Increment      1: Step Time =    1.000,"PART-1-1",          2549,  -20.0000E-03,   150.000E-03,            0.,NA,NA,"",  -20.0000E-03,   150.000E-03,            0.,   385.922E-03
C:/Users/touze/project/Shear_centre/strip/Job-1.odb,loading,Increment      1: Step Time =    1.000,"PART-1-1",          2548,  -20.0000E-03,   200.000E-03,            0.,NA,NA,"",  -20.0000E-03,   200.000E-03,            0.,   270.237E-03
C:/Users/touze/project/Shear_centre/strip/Job-1.odb,loading,Increment      1: Step Time =    1.000,"PART-1-1",          2547,  -20.0000E-03,      250.E-03,            0.,NA,NA,"",  -20.0000E-03,      250.E-03,            0.,   238.239E-03
C:/Users/touze/project/Shear_centre/strip/Job-1.odb,loading,Increment      1: Step Time =    1.000,"PART-1-1",          2546,  -20.0000E-03,   300.000E-03,            0.,NA,NA,"",  -20.0000E-03,   300.000E-03,            0.,   307.688E-03
C:/Users/touze/project/Shear_centre/strip/Job-1.odb,loading,Increment      1: Step Time =    1.000,"PART-1-1",          2545,  -20.0000E-03,   350.000E-03,            0.,NA,NA,"",  -20.0000E-03,   350.000E-03,            0.,   447.884E-03
C:/Users/touze/project/Shear_centre/strip/Job-1.odb,loading,Increment      1: Step Time =    1.000,"PART-1-1",          2544,  -20.0000E-03,   400.000E-03,            0.,NA,NA,"",  -20.0000E-03,   400.000E-03,            0.,   611.698E-03
C:/Users/touze/project/Shear_centre/strip/Job-1.odb,loading,Increment      1: Step Time =    1.000,"PART-1-1",          2543,  -20.0000E-03,   450.000E-03,            0.,NA,NA,"",  -20.0000E-03,   450.000E-03,            0.,   795.814E-03
C:/Users/touze/project/Shear_centre/strip/Job-1.odb,loading,Increment      1: Step Time =    1.000,"PART-1-1",          2542,  -20.0000E-03,      500.E-03,            0.,NA,NA,"",  -20.0000E-03,      500.E-03,            0.,   900.236E-03
C:/Users/touze/project/Shear_centre/strip/Job-1.odb,loading,Increment      1: Step Time =    1.000,"PART-1-1",          1281,   20.0000E-03,     -500.E-03,            0.,NA,NA,"",   20.0000E-03,     -500.E-03,            0.,   900.236E-03
C:/Users/touze/project/Shear_centre/strip/Job-1.odb,loading,Increment      1: Step Time =    1.000,"PART-1-1",          1280,   20.0000E-03,  -450.000E-03,            0.,NA,NA,"",   20.0000E-03,  -450.000E-03,            0.,   795.814E-03
C:/Users/touze/project/Shear_centre/strip/Job-1.odb,loading,Increment      1: Step Time =    1.000,"PART-1-1",          1279,   20.0000E-03,  -400.000E-03,            0.,NA,NA,"",   20.0000E-03,  -400.000E-03,            0.,   611.698E-03
C:/Users/touze/project/Shear_centre/strip/Job-1.odb,loading,Increment      1: Step Time =    1.000,"PART-1-1",          1278,   20.0000E-03,  -350.000E-03,            0.,NA,NA,"",   20.0000E-03,  -350.000E-03,            0.,   447.884E-03
C:/Users/touze/project/Shear_centre/strip/Job-1.odb,loading,Increment      1: Step Time =    1.000,"PART-1-1",          1277,   20.0000E-03,  -300.000E-03,            0.,NA,NA,"",   20.0000E-03,  -300.000E-03,            0.,   307.688E-03
C:/Users/touze/project/Shear_centre/strip/Job-1.odb,loading,Increment      1: Step Time =    1.000,"PART-1-1",          1276,   20.0000E-03,     -250.E-03,            0.,NA,NA,"",   20.0000E-03,     -250.E-03,            0.,   238.239E-03
C:/Users/touze/project/Shear_centre/strip/Job-1.odb,loading,Increment      1: Step Time =    1.000,"PART-1-1",          1275,   20.0000E-03,  -200.000E-03,            0.,NA,NA,"",   20.0000E-03,  -200.000E-03,            0.,   270.237E-03
C:/Users/touze/project/Shear_centre/strip/Job-1.odb,loading,Increment      1: Step Time =    1.000,"PART-1-1",          1274,   20.0000E-03,  -150.000E-03,            0.,NA,NA,"",   20.0000E-03,  -150.000E-03,            0.,   385.922E-03
C:/Users/touze/project/Shear_centre/strip/Job-1.odb,loading,Increment      1: Step Time =    1.000,"PART-1-1",          1273,   20.0000E-03,  -100.000E-03,            0.,NA,NA,"",   20.0000E-03,  -100.000E-03,            0.,   534.044E-03
C:/Users/touze/project/Shear_centre/strip/Job-1.odb,loading,Increment      1: Step Time =    1.000,"PART-1-1",          1272,   20.0000E-03,  -50.0000E-03,            0.,NA,NA,"",   20.0000E-03,  -50.0000E-03,            0.,   691.277E-03
C:/Users/touze/project/Shear_centre/strip/Job-1.odb,loading,Increment      1: Step Time =    1.000,"PART-1-1",          1271,   20.0000E-03,            0.,            0.,NA,NA,"",   20.0000E-03,            0.,            0.,   770.704E-03
C:/Users/touze/project/Shear_centre/strip/Job-1.odb,loading,Increment      1: Step Time =    1.000,"PART-1-1",          1270,   20.0000E-03,   50.0000E-03,            0.,NA,NA,"",   20.0000E-03,   50.0000E-03,            0.,   691.277E-03
C:/Users/touze/project/Shear_centre/strip/Job-1.odb,loading,Increment      1: Step Time =    1.000,"PART-1-1",          1269,   20.0000E-03,   100.000E-03,            0.,NA,NA,"",   20.0000E-03,   100.000E-03,            0.,   534.044E-03
C:/Users/touze/project/Shear_centre/strip/Job-1.odb,loading,Increment      1: Step Time =    1.000,"PART-1-1",          1268,   20.0000E-03,   150.000E-03,            0.,NA,NA,"",   20.0000E-03,   150.000E-03,            0.,   385.922E-03
C:/Users/touze/project/Shear_centre/strip/Job-1.odb,loading,Increment      1: Step Time =    1.000,"PART-1-1",          1267,   20.0000E-03,   200.000E-03,            0.,NA,NA,"",   20.0000E-03,   200.000E-03,            0.,   270.237E-03
C:/Users/touze/project/Shear_centre/strip/Job-1.odb,loading,Increment      1: Step Time =    1.000,"PART-1-1",          1266,   20.0000E-03,      250.E-03,            0.,NA,NA,"",   20.0000E-03,      250.E-03,            0.,   238.239E-03
C:/Users/touze/project/Shear_centre/strip/Job-1.odb,loading,Increment      1: Step Time =    1.000,"PART-1-1",          1265,   20.0000E-03,   300.000E-03,            0.,NA,NA,"",   20.0000E-03,   300.000E-03,            0.,   307.688E-03
C:/Users/touze/project/Shear_centre/strip/Job-1.odb,loading,Increment      1: Step Time =    1.000,"PART-1-1",          1264,   20.0000E-03,   350.000E-03,            0.,NA,NA,"",   20.0000E-03,   350.000E-03,            0.,   447.884E-03
C:/Users/touze/project/Shear_centre/strip/Job-1.odb,loading,Increment      1: Step Time =    1.000,"PART-1-1",          1263,   20.0000E-03,   400.000E-03,            0.,NA,NA,"",   20.0000E-03,   400.000E-03,            0.,   611.698E-03
C:/Users/touze/project/Shear_centre/strip/Job-1.odb,loading,Increment      1: Step Time =    1.000,"PART-1-1",          1262,   20.0000E-03,   450.000E-03,            0.,NA,NA,"",   20.0000E-03,   450.000E-03,            0.,   795.814E-03
C:/Users/touze/project/Shear_centre/strip/Job-1.odb,loading,Increment      1: Step Time =    1.000,"PART-1-1",          1261,   20.0000E-03,      500.E-03,            0.,NA,NA,"",   20.0000E-03,      500.E-03,            0.,   900.236E-03
C:/Users/touze/project/Shear_centre/strip/Job-1.odb,loading,Increment      1: Step Time =    1.000,"PART-1-1",          2561,  -20.0000E-03,  -450.000E-03,            0.,NA,NA,"",  -20.0000E-03,  -450.000E-03,            0.,   795.814E-03
C:/Users/touze/project/Shear_centre/strip/Job-1.odb,loading,Increment      1: Step Time =    1.000,"PART-1-1",          2521,  -20.0000E-03,      500.E-03,   50.0000E-03,NA,NA,"",  -20.0000E-03,      500.E-03,   50.0000E-03,   897.967E-03
C:/Users/touze/project/Shear_centre/strip/Job-1.odb,loading,Increment      1: Step Time =    1.000,"PART-1-1",          2522,  -20.0000E-03,   450.000E-03,   50.0000E-03,NA,NA,"",  -20.0000E-03,   450.000E-03,   50.0000E-03,   793.408E-03
C:/Users/touze/project/Shear_centre/strip/Job-1.odb,loading,Increment      1: Step Time =    1.000,"PART-1-1",          2523,  -20.0000E-03,   400.000E-03,   50.0000E-03,NA,NA,"",  -20.0000E-03,   400.000E-03,   50.0000E-03,   608.905E-03
C:/Users/touze/project/Shear_centre/strip/Job-1.odb,loading,Increment      1: Step Time =    1.000,"PART-1-1",          2524,  -20.0000E-03,   350.000E-03,   50.0000E-03,NA,NA,"",  -20.0000E-03,   350.000E-03,   50.0000E-03,   435.114E-03
C:/Users/touze/project/Shear_centre/strip/Job-1.odb,loading,Increment      1: Step Time =    1.000,"PART-1-1",          2525,  -20.0000E-03,   300.000E-03,   50.0000E-03,NA,NA,"",  -20.0000E-03,   300.000E-03,   50.0000E-03,   272.669E-03
C:/Users/touze/project/Shear_centre/strip/Job-1.odb,loading,Increment      1: Step Time =    1.000,"PART-1-1",          2526,  -20.0000E-03,      250.E-03,   50.0000E-03,NA,NA,"",  -20.0000E-03,      250.E-03,   50.0000E-03,   195.710E-03
C:/Users/touze/project/Shear_centre/strip/Job-1.odb,loading,Increment      1: Step Time =    1.000,"PART-1-1",          2527,  -20.0000E-03,   200.000E-03,   50.0000E-03,NA,NA,"",  -20.0000E-03,   200.000E-03,   50.0000E-03,   252.650E-03
C:/Users/touze/project/Shear_centre/strip/Job-1.odb,loading,Increment      1: Step Time =    1.000,"PART-1-1",          2528,  -20.0000E-03,   150.000E-03,   50.0000E-03,NA,NA,"",  -20.0000E-03,   150.000E-03,   50.0000E-03,   403.293E-03
C:/Users/touze/project/Shear_centre/strip/Job-1.odb,loading,Increment      1: Step Time =    1.000,"PART-1-1",          2529,  -20.0000E-03,   100.000E-03,   50.0000E-03,NA,NA,"",  -20.0000E-03,   100.000E-03,   50.0000E-03,   578.122E-03
C:/Users/touze/project/Shear_centre/strip/Job-1.odb,loading,Increment      1: Step Time =    1.000,"PART-1-1",          2530,  -20.0000E-03,   50.0000E-03,   50.0000E-03,NA,NA,"",  -20.0000E-03,   50.0000E-03,   50.0000E-03,   753.697E-03
C:/Users/touze/project/Shear_centre/strip/Job-1.odb,loading,Increment      1: Step Time =    1.000,"PART-1-1",          2531,  -20.0000E-03,            0.,   50.0000E-03,NA,NA,"",  -20.0000E-03,            0.,   50.0000E-03,   839.787E-03
C:/Users/touze/project/Shear_centre/strip/Job-1.odb,loading,Increment      1: Step Time =    1.000,"PART-1-1",          2532,  -20.0000E-03,  -50.0000E-03,   50.0000E-03,NA,NA,"",  -20.0000E-03,  -50.0000E-03,   50.0000E-03,   753.697E-03
C:/Users/touze/project/Shear_centre/strip/Job-1.odb,loading,Increment      1: Step Time =    1.000,"PART-1-1",          2533,  -20.0000E-03,  -100.000E-03,   50.0000E-03,NA,NA,"",  -20.0000E-03,  -100.000E-03,   50.0000E-03,   578.122E-03
C:/Users/touze/project/Shear_centre/strip/Job-1.odb,loading,Increment      1: Step Time =    1.000,"PART-1-1",          2534,  -20.0000E-03,  -150.000E-03,   50.0000E-03,NA,NA,"",  -20.0000E-03,  -150.000E-03,   50.0000E-03,   403.293E-03
C:/Users/touze/project/Shear_centre/strip/Job-1.odb,loading,Increment      1: Step Time =    1.000,"PART-1-1",          2535,  -20.0000E-03,  -200.000E-03,   50.0000E-03,NA,NA,"",  -20.0000E-03,  -200.000E-03,   50.0000E-03,   252.650E-03
C:/Users/touze/project/Shear_centre/strip/Job-1.odb,loading,Increment      1: Step Time =    1.000,"PART-1-1",          2536,  -20.0000E-03,     -250.E-03,   50.0000E-03,NA,NA,"",  -20.0000E-03,     -250.E-03,   50.0000E-03,   195.710E-03
C:/Users/touze/project/Shear_centre/strip/Job-1.odb,loading,Increment      1: Step Time =    1.000,"PART-1-1",          2537,  -20.0000E-03,  -300.000E-03,   50.0000E-03,NA,NA,"",  -20.0000E-03,  -300.000E-03,   50.0000E-03,   272.669E-03
C:/Users/touze/project/Shear_centre/strip/Job-1.odb,loading,Increment      1: Step Time =    1.000,"PART-1-1",          2538,  -20.0000E-03,  -350.000E-03,   50.0000E-03,NA,NA,"",  -20.0000E-03,  -350.000E-03,   50.0000E-03,   435.114E-03
C:/Users/touze/project/Shear_centre/strip/Job-1.odb,loading,Increment      1: Step Time =    1.000,"PART-1-1",          2539,  -20.0000E-03,  -400.000E-03,   50.0000E-03,NA,NA,"",  -20.0000E-03,  -400.000E-03,   50.0000E-03,   608.905E-03
C:/Users/touze/project/Shear_centre/strip/Job-1.odb,loading,Increment      1: Step Time =    1.000,"PART-1-1",          2540,  -20.0000E-03,  -450.000E-03,   50.0000E-03,NA,NA,"",  -20.0000E-03,  -450.000E-03,   50.0000E-03,   793.408E-03
C:/Users/touze/project/Shear_centre/strip/Job-1.odb,loading,Increment      1: Step Time =    1.000,"PART-1-1",          2541,  -20.0000E-03,     -500.E-03,   50.0000E-03,NA,NA,"",  -20.0000E-03,     -500.E-03,   50.0000E-03,   897.967E-03
C:/Users/touze/project/Shear_centre/strip/Job-1.odb,loading,Increment      1: Step Time =    1.000,"PART-1-1",          1260,   20.0000E-03,     -500.E-03,   50.0000E-03,NA,NA,"",   20.0000E-03,     -500.E-03,   50.0000E-03,   897.967E-03
C:/Users/touze/project/Shear_centre/strip/Job-1.odb,loading,Increment      1: Step Time =    1.000,"PART-1-1",          1259,   20.0000E-03,  -450.000E-03,   50.0000E-03,NA,NA,"",   20.0000E-03,  -450.000E-03,   50.0000E-03,   793.408E-03
C:/Users/touze/project/Shear_centre/strip/Job-1.odb,loading,Increment      1: Step Time =    1.000,"PART-1-1",          1258,   20.0000E-03,  -400.000E-03,   50.0000E-03,NA,NA,"",   20.0000E-03,  -400.000E-03,   50.0000E-03,   608.905E-03
C:/Users/touze/project/Shear_centre/strip/Job-1.odb,loading,Increment      1: Step Time =    1.000,"PART-1-1",          1257,   20.0000E-03,  -350.000E-03,   50.0000E-03,NA,NA,"",   20.0000E-03,  -350.000E-03,   50.0000E-03,   435.114E-03
C:/Users/touze/project/Shear_centre/strip/Job-1.odb,loading,Increment      1: Step Time =    1.000,"PART-1-1",          1256,   20.0000E-03,  -300.000E-03,   50.0000E-03,NA,NA,"",   20.0000E-03,  -300.000E-03,   50.0000E-03,   272.669E-03
C:/Users/touze/project/Shear_centre/strip/Job-1.odb,loading,Increment      1: Step Time =    1.000,"PART-1-1",          1255,   20.0000E-03,     -250.E-03,   50.0000E-03,NA,NA,"",   20.0000E-03,     -250.E-03,   50.0000E-03,   195.710E-03
C:/Users/touze/project/Shear_centre/strip/Job-1.odb,loading,Increment      1: Step Time =    1.000,"PART-1-1",          1254,   20.0000E-03,  -200.000E-03,   50.0000E-03,NA,NA,"",   20.0000E-03,  -200.000E-03,   50.0000E-03,   252.650E-03
C:/Users/touze/project/Shear_centre/strip/Job-1.odb,loading,Increment      1: Step Time =    1.000,"PART-1-1",          1253,   20.0000E-03,  -150.000E-03,   50.0000E-03,NA,NA,"",   20.0000E-03,  -150.000E-03,   50.0000E-03,   403.293E-03
C:/Users/touze/project/Shear_centre/strip/Job-1.odb,loading,Increment      1: Step Time =    1.000,"PART-1-1",          1252,   20.0000E-03,  -100.000E-03,   50.0000E-03,NA,NA,"",   20.0000E-03,  -100.000E-03,   50.0000E-03,   578.122E-03
C:/Users/touze/project/Shear_centre/strip/Job-1.odb,loading,Increment      1: Step Time =    1.000,"PART-1-1",          1251,   20.0000E-03,  -50.0000E-03,   50.0000E-03,NA,NA,"",   20.0000E-03,  -50.0000E-03,   50.0000E-03,   753.697E-03
C:/Users/touze/project/Shear_centre/strip/Job-1.odb,loading,Increment      1: Step Time =    1.000,"PART-1-1",          1250,   20.0000E-03,            0.,   50.0000E-03,NA,NA,"",   20.0000E-03,            0.,   50.0000E-03,   839.787E-03
C:/Users/touze/project/Shear_centre/strip/Job-1.odb,loading,Increment      1: Step Time =    1.000,"PART-1-1",          1249,   20.0000E-03,   50.0000E-03,   50.0000E-03,NA,NA,"",   20.0000E-03,   50.0000E-03,   50.0000E-03,   753.697E-03
C:/Users/touze/project/Shear_centre/strip/Job-1.odb,loading,Increment      1: Step Time =    1.000,"PART-1-1",          1248,   20.0000E-03,   100.000E-03,   50.0000E-03,NA,NA,"",   20.0000E-03,   100.000E-03,   50.0000E-03,   578.122E-03
C:/Users/touze/project/Shear_centre/strip/Job-1.odb,loading,Increment      1: Step Time =    1.000,"PART-1-1",          1247,   20.0000E-03,   150.000E-03,   50.0000E-03,NA,NA,"",   20.0000E-03,   150.000E-03,   50.0000E-03,   403.293E-03
C:/Users/touze/project/Shear_centre/strip/Job-1.odb,loading,Increment      1: Step Time =    1.000,"PART-1-1",          1246,   20.0000E-03,   200.000E-03,   50.0000E-03,NA,NA,"",   20.0000E-03,   200.000E-03,   50.0000E-03,   252.650E-03
C:/Users/touze/project/Shear_centre/strip/Job-1.odb,loading,Increment      1: Step Time =    1.000,"PART-1-1",          1245,   20.0000E-03,      250.E-03,   50.0000E-03,NA,NA,"",   20.0000E-03,      250.E-03,   50.0000E-03,   195.710E-03
C:/Users/touze/project/Shear_centre/strip/Job-1.odb,loading,Increment      1: Step Time =    1.000,"PART-1-1",          1244,   20.0000E-03,   300.000E-03,   50.0000E-03,NA,NA,"",   20.0000E-03,   300.000E-03,   50.0000E-03,   272.669E-03
C:/Users/touze/project/Shear_centre/strip/Job-1.odb,loading,Increment      1: Step Time =    1.000,"PART-1-1",          1243,   20.0000E-03,   350.000E-03,   50.0000E-03,NA,NA,"",   20.0000E-03,   350.000E-03,   50.0000E-03,   435.114E-03
C:/Users/touze/project/Shear_centre/strip/Job-1.odb,loading,Increment      1: Step Time =    1.000,"PART-1-1",          1242,   20.0000E-03,   400.000E-03,   50.0000E-03,NA,NA,"",   20.0000E-03,   400.000E-03,   50.0000E-03,   608.905E-03
C:/Users/touze/project/Shear_centre/strip/Job-1.odb,loading,Increment      1: Step Time =    1.000,"PART-1-1",          1241,   20.0000E-03,   450.000E-03,   50.0000E-03,NA,NA,"",   20.0000E-03,   450.000E-03,   50.0000E-03,   793.408E-03
C:/Users/touze/project/Shear_centre/strip/Job-1.odb,loading,Increment      1: Step Time =    1.000,"PART-1-1",          1240,   20.0000E-03,      500.E-03,   50.0000E-03,NA,NA,"",   20.0000E-03,      500.E-03,   50.0000E-03,   897.967E-03
C:/Users/touze/project/Shear_centre/strip/Job-1.odb,loading,Increment      1: Step Time =    1.000,"PART-1-1",          2520,  -20.0000E-03,     -500.E-03,   100.000E-03,NA,NA,"",  -20.0000E-03,     -500.E-03,   100.000E-03,   873.051E-03
C:/Users/touze/project/Shear_centre/strip/Job-1.odb,loading,Increment      1: Step Time =    1.000,"PART-1-1",          2500,  -20.0000E-03,      500.E-03,   100.000E-03,NA,NA,"",  -20.0000E-03,      500.E-03,   100.000E-03,   873.051E-03
C:/Users/touze/project/Shear_centre/strip/Job-1.odb,loading,Increment      1: Step Time =    1.000,"PART-1-1",          2501,  -20.0000E-03,   450.000E-03,   100.000E-03,NA,NA,"",  -20.0000E-03,   450.000E-03,   100.000E-03,   769.264E-03
C:/Users/touze/project/Shear_centre/strip/Job-1.odb,loading,Increment      1: Step Time =    1.000,"PART-1-1",          2502,  -20.0000E-03,   400.000E-03,   100.000E-03,NA,NA,"",  -20.0000E-03,   400.000E-03,   100.000E-03,   582.376E-03
C:/Users/touze/project/Shear_centre/strip/Job-1.odb,loading,Increment      1: Step Time =    1.000,"PART-1-1",          2503,  -20.0000E-03,   350.000E-03,   100.000E-03,NA,NA,"",  -20.0000E-03,   350.000E-03,   100.000E-03,   400.877E-03
C:/Users/touze/project/Shear_centre/strip/Job-1.odb,loading,Increment      1: Step Time =    1.000,"PART-1-1",          2504,  -20.0000E-03,   300.000E-03,   100.000E-03,NA,NA,"",  -20.0000E-03,   300.000E-03,   100.000E-03,   223.129E-03
C:/Users/touze/project/Shear_centre/strip/Job-1.odb,loading,Increment      1: Step Time =    1.000,"PART-1-1",          2505,  -20.0000E-03,      250.E-03,   100.000E-03,NA,NA,"",  -20.0000E-03,      250.E-03,   100.000E-03,   145.805E-03
C:/Users/touze/project/Shear_centre/strip/Job-1.odb,loading,Increment      1: Step Time =    1.000,"PART-1-1",          2506,  -20.0000E-03,   200.000E-03,   100.000E-03,NA,NA,"",  -20.0000E-03,   200.000E-03,   100.000E-03,   230.908E-03
C:/Users/touze/project/Shear_centre/strip/Job-1.odb,loading,Increment      1: Step Time =    1.000,"PART-1-1",          2507,  -20.0000E-03,   150.000E-03,   100.000E-03,NA,NA,"",  -20.0000E-03,   150.000E-03,   100.000E-03,   408.260E-03
C:/Users/touze/project/Shear_centre/strip/Job-1.odb,loading,Increment      1: Step Time =    1.000,"PART-1-1",          2508,  -20.0000E-03,   100.000E-03,   100.000E-03,NA,NA,"",  -20.0000E-03,   100.000E-03,   100.000E-03,   598.743E-03
C:/Users/touze/project/Shear_centre/strip/Job-1.odb,loading,Increment      1: Step Time =    1.000,"PART-1-1",          2509,  -20.0000E-03,   50.0000E-03,   100.000E-03,NA,NA,"",  -20.0000E-03,   50.0000E-03,   100.000E-03,   780.414E-03
C:/Users/touze/project/Shear_centre/strip/Job-1.odb,loading,Increment      1: Step Time =    1.000,"PART-1-1",          2510,  -20.0000E-03,            0.,   100.000E-03,NA,NA,"",  -20.0000E-03,            0.,   100.000E-03,   865.875E-03
C:/Users/touze/project/Shear_centre/strip/Job-1.odb,loading,Increment      1: Step Time =    1.000,"PART-1-1",          2511,  -20.0000E-03,  -50.0000E-03,   100.000E-03,NA,NA,"",  -20.0000E-03,  -50.0000E-03,   100.000E-03,   780.414E-03
C:/Users/touze/project/Shear_centre/strip/Job-1.odb,loading,Increment      1: Step Time =    1.000,"PART-1-1",          2512,  -20.0000E-03,  -100.000E-03,   100.000E-03,NA,NA,"",  -20.0000E-03,  -100.000E-03,   100.000E-03,   598.743E-03
C:/Users/touze/project/Shear_centre/strip/Job-1.odb,loading,Increment      1: Step Time =    1.000,"PART-1-1",          2513,  -20.0000E-03,  -150.000E-03,   100.000E-03,NA,NA,"",  -20.0000E-03,  -150.000E-03,   100.000E-03,   408.260E-03
C:/Users/touze/project/Shear_centre/strip/Job-1.odb,loading,Increment      1: Step Time =    1.000,"PART-1-1",          2514,  -20.0000E-03,  -200.000E-03,   100.000E-03,NA,NA,"",  -20.0000E-03,  -200.000E-03,   100.000E-03,   230.908E-03
C:/Users/touze/project/Shear_centre/strip/Job-1.odb,loading,Increment      1: Step Time =    1.000,"PART-1-1",          2515,  -20.0000E-03,     -250.E-03,   100.000E-03,NA,NA,"",  -20.0000E-03,     -250.E-03,   100.000E-03,   145.805E-03
C:/Users/touze/project/Shear_centre/strip/Job-1.odb,loading,Increment      1: Step Time =    1.000,"PART-1-1",          2516,  -20.0000E-03,  -300.000E-03,   100.000E-03,NA,NA,"",  -20.0000E-03,  -300.000E-03,   100.000E-03,   223.129E-03
C:/Users/touze/project/Shear_centre/strip/Job-1.odb,loading,Increment      1: Step Time =    1.000,"PART-1-1",          2517,  -20.0000E-03,  -350.000E-03,   100.000E-03,NA,NA,"",  -20.0000E-03,  -350.000E-03,   100.000E-03,   400.877E-03
C:/Users/touze/project/Shear_centre/strip/Job-1.odb,loading,Increment      1: Step Time =    1.000,"PART-1-1",          2518,  -20.0000E-03,  -400.000E-03,   100.000E-03,NA,NA,"",  -20.0000E-03,  -400.000E-03,   100.000E-03,   582.376E-03
C:/Users/touze/project/Shear_centre/strip/Job-1.odb,loading,Increment      1: Step Time =    1.000,"PART-1-1",          2519,  -20.0000E-03,  -450.000E-03,   100.000E-03,NA,NA,"",  -20.0000E-03,  -450.000E-03,   100.000E-03,   769.264E-03
C:/Users/touze/project/Shear_centre/strip/Job-1.odb,loading,Increment      1: Step Time =    1.000,"PART-1-1",          1239,   20.0000E-03,     -500.E-03,   100.000E-03,NA,NA,"",   20.0000E-03,     -500.E-03,   100.000E-03,   873.051E-03
C:/Users/touze/project/Shear_centre/strip/Job-1.odb,loading,Increment      1: Step Time =    1.000,"PART-1-1",          1238,   20.0000E-03,  -450.000E-03,   100.000E-03,NA,NA,"",   20.0000E-03,  -450.000E-03,   100.000E-03,   769.264E-03
C:/Users/touze/project/Shear_centre/strip/Job-1.odb,loading,Increment      1: Step Time =    1.000,"PART-1-1",          1237,   20.0000E-03,  -400.000E-03,   100.000E-03,NA,NA,"",   20.0000E-03,  -400.000E-03,   100.000E-03,   582.376E-03
C:/Users/touze/project/Shear_centre/strip/Job-1.odb,loading,Increment      1: Step Time =    1.000,"PART-1-1",          1236,   20.0000E-03,  -350.000E-03,   100.000E-03,NA,NA,"",   20.0000E-03,  -350.000E-03,   100.000E-03,   400.877E-03
C:/Users/touze/project/Shear_centre/strip/Job-1.odb,loading,Increment      1: Step Time =    1.000,"PART-1-1",          1235,   20.0000E-03,  -300.000E-03,   100.000E-03,NA,NA,"",   20.0000E-03,  -300.000E-03,   100.000E-03,   223.129E-03
C:/Users/touze/project/Shear_centre/strip/Job-1.odb,loading,Increment      1: Step Time =    1.000,"PART-1-1",          1234,   20.0000E-03,     -250.E-03,   100.000E-03,NA,NA,"",   20.0000E-03,     -250.E-03,   100.000E-03,   145.805E-03
C:/Users/touze/project/Shear_centre/strip/Job-1.odb,loading,Increment      1: Step Time =    1.000,"PART-1-1",          1233,   20.0000E-03,  -200.000E-03,   100.000E-03,NA,NA,"",   20.0000E-03,  -200.000E-03,   100.000E-03,   230.908E-03
C:/Users/touze/project/Shear_centre/strip/Job-1.odb,loading,Increment      1: Step Time =    1.000,"PART-1-1",          1232,   20.0000E-03,  -150.000E-03,   100.000E-03,NA,NA,"",   20.0000E-03,  -150.000E-03,   100.000E-03,   408.260E-03
C:/Users/touze/project/Shear_centre/strip/Job-1.odb,loading,Increment      1: Step Time =    1.000,"PART-1-1",          1231,   20.0000E-03,  -100.000E-03,   100.000E-03,NA,NA,"",   20.0000E-03,  -100.000E-03,   100.000E-03,   598.743E-03
C:/Users/touze/project/Shear_centre/strip/Job-1.odb,loading,Increment      1: Step Time =    1.000,"PART-1-1",          1230,   20.0000E-03,  -50.0000E-03,   100.000E-03,NA,NA,"",   20.0000E-03,  -50.0000E-03,   100.000E-03,   780.414E-03
C:/Users/touze/project/Shear_centre/strip/Job-1.odb,loading,Increment      1: Step Time =    1.000,"PART-1-1",          1229,   20.0000E-03,            0.,   100.000E-03,NA,NA,"",   20.0000E-03,            0.,   100.000E-03,   865.875E-03
C:/Users/touze/project/Shear_centre/strip/Job-1.odb,loading,Increment      1: Step Time =    1.000,"PART-1-1",          1228,   20.0000E-03,   50.0000E-03,   100.000E-03,NA,NA,"",   20.0000E-03,   50.0000E-03,   100.000E-03,   780.414E-03
C:/Users/touze/project/Shear_centre/strip/Job-1.odb,loading,Increment      1: Step Time =    1.000,"PART-1-1",          1227,   20.0000E-03,   100.000E-03,   100.000E-03,NA,NA,"",   20.0000E-03,   100.000E-03,   100.000E-03,   598.743E-03
C:/Users/touze/project/Shear_centre/strip/Job-1.odb,loading,Increment      1: Step Time =    1.000,"PART-1-1",          1226,   20.0000E-03,   150.000E-03,   100.000E-03,NA,NA,"",   20.0000E-03,   150.000E-03,   100.000E-03,   408.260E-03
C:/Users/touze/project/Shear_centre/strip/Job-1.odb,loading,Increment      1: Step Time =    1.000,"PART-1-1",          1225,   20.0000E-03,   200.000E-03,   100.000E-03,NA,NA,"",   20.0000E-03,   200.000E-03,   100.000E-03,   230.908E-03
C:/Users/touze/project/Shear_centre/strip/Job-1.odb,loading,Increment      1: Step Time =    1.000,"PART-1-1",          1224,   20.0000E-03,      250.E-03,   100.000E-03,NA,NA,"",   20.0000E-03,      250.E-03,   100.000E-03,   145.805E-03
C:/Users/touze/project/Shear_centre/strip/Job-1.odb,loading,Increment      1: Step Time =    1.000,"PART-1-1",          1223,   20.0000E-03,   300.000E-03,   100.000E-03,NA,NA,"",   20.0000E-03,   300.000E-03,   100.000E-03,   223.129E-03
C:/Users/touze/project/Shear_centre/strip/Job-1.odb,loading,Increment      1: Step Time =    1.000,"PART-1-1",          1222,   20.0000E-03,   350.000E-03,   100.000E-03,NA,NA,"",   20.0000E-03,   350.000E-03,   100.000E-03,   400.877E-03
C:/Users/touze/project/Shear_centre/strip/Job-1.odb,loading,Increment      1: Step Time =    1.000,"PART-1-1",          1221,   20.0000E-03,   400.000E-03,   100.000E-03,NA,NA,"",   20.0000E-03,   400.000E-03,   100.000E-03,   582.376E-03
C:/Users/touze/project/Shear_centre/strip/Job-1.odb,loading,Increment      1: Step Time =    1.000,"PART-1-1",          1220,   20.0000E-03,   450.000E-03,   100.000E-03,NA,NA,"",   20.0000E-03,   450.000E-03,   100.000E-03,   769.264E-03
C:/Users/touze/project/Shear_centre/strip/Job-1.odb,loading,Increment      1: Step Time =    1.000,"PART-1-1",          1219,   20.0000E-03,      500.E-03,   100.000E-03,NA,NA,"",   20.0000E-03,      500.E-03,   100.000E-03,   873.051E-03
C:/Users/touze/project/Shear_centre/strip/Job-1.odb,loading,Increment      1: Step Time =    1.000,"PART-1-1",          2498,  -20.0000E-03,  -450.000E-03,   150.000E-03,NA,NA,"",  -20.0000E-03,  -450.000E-03,   150.000E-03,   745.271E-03
C:/Users/touze/project/Shear_centre/strip/Job-1.odb,loading,Increment      1: Step Time =    1.000,"PART-1-1",          1198,   20.0000E-03,      500.E-03,   150.000E-03,NA,NA,"",   20.0000E-03,      500.E-03,   150.000E-03,   839.833E-03
C:/Users/touze/project/Shear_centre/strip/Job-1.odb,loading,Increment      1: Step Time =    1.000,"PART-1-1",          1199,   20.0000E-03,   450.000E-03,   150.000E-03,NA,NA,"",   20.0000E-03,   450.000E-03,   150.000E-03,   745.271E-03
C:/Users/touze/project/Shear_centre/strip/Job-1.odb,loading,Increment      1: Step Time =    1.000,"PART-1-1",          1200,   20.0000E-03,   400.000E-03,   150.000E-03,NA,NA,"",   20.0000E-03,   400.000E-03,   150.000E-03,   563.796E-03
C:/Users/touze/project/Shear_centre/strip/Job-1.odb,loading,Increment      1: Step Time =    1.000,"PART-1-1",          1201,   20.0000E-03,   350.000E-03,   150.000E-03,NA,NA,"",   20.0000E-03,   350.000E-03,   150.000E-03,   385.224E-03
C:/Users/touze/project/Shear_centre/strip/Job-1.odb,loading,Increment      1: Step Time =    1.000,"PART-1-1",          1202,   20.0000E-03,   300.000E-03,   150.000E-03,NA,NA,"",   20.0000E-03,   300.000E-03,   150.000E-03,   214.051E-03
C:/Users/touze/project/Shear_centre/strip/Job-1.odb,loading,Increment      1: Step Time =    1.000,"PART-1-1",          1203,   20.0000E-03,      250.E-03,   150.000E-03,NA,NA,"",   20.0000E-03,      250.E-03,   150.000E-03,   138.262E-03
C:/Users/touze/project/Shear_centre/strip/Job-1.odb,loading,Increment      1: Step Time =    1.000,"PART-1-1",          1204,   20.0000E-03,   200.000E-03,   150.000E-03,NA,NA,"",   20.0000E-03,   200.000E-03,   150.000E-03,   223.418E-03
C:/Users/touze/project/Shear_centre/strip/Job-1.odb,loading,Increment      1: Step Time =    1.000,"PART-1-1",          1205,   20.0000E-03,   150.000E-03,   150.000E-03,NA,NA,"",   20.0000E-03,   150.000E-03,   150.000E-03,   393.546E-03
C:/Users/touze/project/Shear_centre/strip/Job-1.odb,loading,Increment      1: Step Time =    1.000,"PART-1-1",          1206,   20.0000E-03,   100.000E-03,   150.000E-03,NA,NA,"",   20.0000E-03,   100.000E-03,   150.000E-03,   574.821E-03
C:/Users/touze/project/Shear_centre/strip/Job-1.odb,loading,Increment      1: Step Time =    1.000,"PART-1-1",          1207,   20.0000E-03,   50.0000E-03,   150.000E-03,NA,NA,"",   20.0000E-03,   50.0000E-03,   150.000E-03,   744.891E-03
C:/Users/touze/project/Shear_centre/strip/Job-1.odb,loading,Increment      1: Step Time =    1.000,"PART-1-1",          1208,   20.0000E-03,            0.,   150.000E-03,NA,NA,"",   20.0000E-03,            0.,   150.000E-03,   822.381E-03
C:/Users/touze/project/Shear_centre/strip/Job-1.odb,loading,Increment      1: Step Time =    1.000,"PART-1-1",          1209,   20.0000E-03,  -50.0000E-03,   150.000E-03,NA,NA,"",   20.0000E-03,  -50.0000E-03,   150.000E-03,   744.891E-03
C:/Users/touze/project/Shear_centre/strip/Job-1.odb,loading,Increment      1: Step Time =    1.000,"PART-1-1",          1210,   20.0000E-03,  -100.000E-03,   150.000E-03,NA,NA,"",   20.0000E-03,  -100.000E-03,   150.000E-03,   574.821E-03
C:/Users/touze/project/Shear_centre/strip/Job-1.odb,loading,Increment      1: Step Time =    1.000,"PART-1-1",          1211,   20.0000E-03,  -150.000E-03,   150.000E-03,NA,NA,"",   20.0000E-03,  -150.000E-03,   150.000E-03,   393.546E-03
C:/Users/touze/project/Shear_centre/strip/Job-1.odb,loading,Increment      1: Step Time =    1.000,"PART-1-1",          1212,   20.0000E-03,  -200.000E-03,   150.000E-03,NA,NA,"",   20.0000E-03,  -200.000E-03,   150.000E-03,   223.418E-03
C:/Users/touze/project/Shear_centre/strip/Job-1.odb,loading,Increment      1: Step Time =    1.000,"PART-1-1",          1213,   20.0000E-03,     -250.E-03,   150.000E-03,NA,NA,"",   20.0000E-03,     -250.E-03,   150.000E-03,   138.262E-03
C:/Users/touze/project/Shear_centre/strip/Job-1.odb,loading,Increment      1: Step Time =    1.000,"PART-1-1",          1214,   20.0000E-03,  -300.000E-03,   150.000E-03,NA,NA,"",   20.0000E-03,  -300.000E-03,   150.000E-03,   214.051E-03
C:/Users/touze/project/Shear_centre/strip/Job-1.odb,loading,Increment      1: Step Time =    1.000,"PART-1-1",          1215,   20.0000E-03,  -350.000E-03,   150.000E-03,NA,NA,"",   20.0000E-03,  -350.000E-03,   150.000E-03,   385.224E-03
C:/Users/touze/project/Shear_centre/strip/Job-1.odb,loading,Increment      1: Step Time =    1.000,"PART-1-1",          1216,   20.0000E-03,  -400.000E-03,   150.000E-03,NA,NA,"",   20.0000E-03,  -400.000E-03,   150.000E-03,   563.796E-03
C:/Users/touze/project/Shear_centre/strip/Job-1.odb,loading,Increment      1: Step Time =    1.000,"PART-1-1",          1217,   20.0000E-03,  -450.000E-03,   150.000E-03,NA,NA,"",   20.0000E-03,  -450.000E-03,   150.000E-03,   745.271E-03
C:/Users/touze/project/Shear_centre/strip/Job-1.odb,loading,Increment      1: Step Time =    1.000,"PART-1-1",          1218,   20.0000E-03,     -500.E-03,   150.000E-03,NA,NA,"",   20.0000E-03,     -500.E-03,   150.000E-03,   839.833E-03
C:/Users/touze/project/Shear_centre/strip/Job-1.odb,loading,Increment      1: Step Time =    1.000,"PART-1-1",          2499,  -20.0000E-03,     -500.E-03,   150.000E-03,NA,NA,"",  -20.0000E-03,     -500.E-03,   150.000E-03,   839.833E-03
C:/Users/touze/project/Shear_centre/strip/Job-1.odb,loading,Increment      1: Step Time =    1.000,"PART-1-1",          2497,  -20.0000E-03,  -400.000E-03,   150.000E-03,NA,NA,"",  -20.0000E-03,  -400.000E-03,   150.000E-03,   563.796E-03
C:/Users/touze/project/Shear_centre/strip/Job-1.odb,loading,Increment      1: Step Time =    1.000,"PART-1-1",          2496,  -20.0000E-03,  -350.000E-03,   150.000E-03,NA,NA,"",  -20.0000E-03,  -350.000E-03,   150.000E-03,   385.224E-03
C:/Users/touze/project/Shear_centre/strip/Job-1.odb,loading,Increment      1: Step Time =    1.000,"PART-1-1",          2495,  -20.0000E-03,  -300.000E-03,   150.000E-03,NA,NA,"",  -20.0000E-03,  -300.000E-03,   150.000E-03,   214.051E-03
C:/Users/touze/project/Shear_centre/strip/Job-1.odb,loading,Increment      1: Step Time =    1.000,"PART-1-1",          2494,  -20.0000E-03,     -250.E-03,   150.000E-03,NA,NA,"",  -20.0000E-03,     -250.E-03,   150.000E-03,   138.262E-03
C:/Users/touze/project/Shear_centre/strip/Job-1.odb,loading,Increment      1: Step Time =    1.000,"PART-1-1",          2493,  -20.0000E-03,  -200.000E-03,   150.000E-03,NA,NA,"",  -20.0000E-03,  -200.000E-03,   150.000E-03,   223.418E-03
C:/Users/touze/project/Shear_centre/strip/Job-1.odb,loading,Increment      1: Step Time =    1.000,"PART-1-1",          2492,  -20.0000E-03,  -150.000E-03,   150.000E-03,NA,NA,"",  -20.0000E-03,  -150.000E-03,   150.000E-03,   393.546E-03
C:/Users/touze/project/Shear_centre/strip/Job-1.odb,loading,Increment      1: Step Time =    1.000,"PART-1-1",          2491,  -20.0000E-03,  -100.000E-03,   150.000E-03,NA,NA,"",  -20.0000E-03,  -100.000E-03,   150.000E-03,   574.821E-03
C:/Users/touze/project/Shear_centre/strip/Job-1.odb,loading,Increment      1: Step Time =    1.000,"PART-1-1",          2490,  -20.0000E-03,  -50.0000E-03,   150.000E-03,NA,NA,"",  -20.0000E-03,  -50.0000E-03,   150.000E-03,   744.891E-03
C:/Users/touze/project/Shear_centre/strip/Job-1.odb,loading,Increment      1: Step Time =    1.000,"PART-1-1",          2489,  -20.0000E-03,            0.,   150.000E-03,NA,NA,"",  -20.0000E-03,            0.,   150.000E-03,   822.381E-03
C:/Users/touze/project/Shear_centre/strip/Job-1.odb,loading,Increment      1: Step Time =    1.000,"PART-1-1",          2488,  -20.0000E-03,   50.0000E-03,   150.000E-03,NA,NA,"",  -20.0000E-03,   50.0000E-03,   150.000E-03,   744.891E-03
C:/Users/touze/project/Shear_centre/strip/Job-1.odb,loading,Increment      1: Step Time =    1.000,"PART-1-1",          2487,  -20.0000E-03,   100.000E-03,   150.000E-03,NA,NA,"",  -20.0000E-03,   100.000E-03,   150.000E-03,   574.821E-03
C:/Users/touze/project/Shear_centre/strip/Job-1.odb,loading,Increment      1: Step Time =    1.000,"PART-1-1",          2486,  -20.0000E-03,   150.000E-03,   150.000E-03,NA,NA,"",  -20.0000E-03,   150.000E-03,   150.000E-03,   393.546E-03
C:/Users/touze/project/Shear_centre/strip/Job-1.odb,loading,Increment      1: Step Time =    1.000,"PART-1-1",          2485,  -20.0000E-03,   200.000E-03,   150.000E-03,NA,NA,"",  -20.0000E-03,   200.000E-03,   150.000E-03,   223.418E-03
C:/Users/touze/project/Shear_centre/strip/Job-1.odb,loading,Increment      1: Step Time =    1.000,"PART-1-1",          2484,  -20.0000E-03,      250.E-03,   150.000E-03,NA,NA,"",  -20.0000E-03,      250.E-03,   150.000E-03,   138.262E-03
C:/Users/touze/project/Shear_centre/strip/Job-1.odb,loading,Increment      1: Step Time =    1.000,"PART-1-1",          2483,  -20.0000E-03,   300.000E-03,   150.000E-03,NA,NA,"",  -20.0000E-03,   300.000E-03,   150.000E-03,   214.051E-03
C:/Users/touze/project/Shear_centre/strip/Job-1.odb,loading,Increment      1: Step Time =    1.000,"PART-1-1",          2482,  -20.0000E-03,   350.000E-03,   150.000E-03,NA,NA,"",  -20.0000E-03,   350.000E-03,   150.000E-03,   385.224E-03
C:/Users/touze/project/Shear_centre/strip/Job-1.odb,loading,Increment      1: Step Time =    1.000,"PART-1-1",          2481,  -20.0000E-03,   400.000E-03,   150.000E-03,NA,NA,"",  -20.0000E-03,   400.000E-03,   150.000E-03,   563.796E-03
C:/Users/touze/project/Shear_centre/strip/Job-1.odb,loading,Increment      1: Step Time =    1.000,"PART-1-1",          2480,  -20.0000E-03,   450.000E-03,   150.000E-03,NA,NA,"",  -20.0000E-03,   450.000E-03,   150.000E-03,   745.271E-03
C:/Users/touze/project/Shear_centre/strip/Job-1.odb,loading,Increment      1: Step Time =    1.000,"PART-1-1",          2479,  -20.0000E-03,      500.E-03,   150.000E-03,NA,NA,"",  -20.0000E-03,      500.E-03,   150.000E-03,   839.833E-03
C:/Users/touze/project/Shear_centre/strip/Job-1.odb,loading,Increment      1: Step Time =    1.000,"PART-1-1",          1177,   20.0000E-03,      500.E-03,   200.000E-03,NA,NA,"",   20.0000E-03,      500.E-03,   200.000E-03,   812.569E-03
C:/Users/touze/project/Shear_centre/strip/Job-1.odb,loading,Increment      1: Step Time =    1.000,"PART-1-1",          1179,   20.0000E-03,   400.000E-03,   200.000E-03,NA,NA,"",   20.0000E-03,   400.000E-03,   200.000E-03,   556.321E-03
C:/Users/touze/project/Shear_centre/strip/Job-1.odb,loading,Increment      1: Step Time =    1.000,"PART-1-1",          1180,   20.0000E-03,   350.000E-03,   200.000E-03,NA,NA,"",   20.0000E-03,   350.000E-03,   200.000E-03,   381.342E-03
C:/Users/touze/project/Shear_centre/strip/Job-1.odb,loading,Increment      1: Step Time =    1.000,"PART-1-1",          1181,   20.0000E-03,   300.000E-03,   200.000E-03,NA,NA,"",   20.0000E-03,   300.000E-03,   200.000E-03,   213.654E-03
C:/Users/touze/project/Shear_centre/strip/Job-1.odb,loading,Increment      1: Step Time =    1.000,"PART-1-1",          1182,   20.0000E-03,      250.E-03,   200.000E-03,NA,NA,"",   20.0000E-03,      250.E-03,   200.000E-03,   135.935E-03
C:/Users/touze/project/Shear_centre/strip/Job-1.odb,loading,Increment      1: Step Time =    1.000,"PART-1-1",          1183,   20.0000E-03,   200.000E-03,   200.000E-03,NA,NA,"",   20.0000E-03,   200.000E-03,   200.000E-03,   218.502E-03
C:/Users/touze/project/Shear_centre/strip/Job-1.odb,loading,Increment      1: Step Time =    1.000,"PART-1-1",          1184,   20.0000E-03,   150.000E-03,   200.000E-03,NA,NA,"",   20.0000E-03,   150.000E-03,   200.000E-03,   386.648E-03
C:/Users/touze/project/Shear_centre/strip/Job-1.odb,loading,Increment      1: Step Time =    1.000,"PART-1-1",          1185,   20.0000E-03,   100.000E-03,   200.000E-03,NA,NA,"",   20.0000E-03,   100.000E-03,   200.000E-03,   565.097E-03
C:/Users/touze/project/Shear_centre/strip/Job-1.odb,loading,Increment      1: Step Time =    1.000,"PART-1-1",          1186,   20.0000E-03,   50.0000E-03,   200.000E-03,NA,NA,"",   20.0000E-03,   50.0000E-03,   200.000E-03,   728.739E-03
C:/Users/touze/project/Shear_centre/strip/Job-1.odb,loading,Increment      1: Step Time =    1.000,"PART-1-1",          1187,   20.0000E-03,            0.,   200.000E-03,NA,NA,"",   20.0000E-03,            0.,   200.000E-03,   801.428E-03
C:/Users/touze/project/Shear_centre/strip/Job-1.odb,loading,Increment      1: Step Time =    1.000,"PART-1-1",          1188,   20.0000E-03,  -50.0000E-03,   200.000E-03,NA,NA,"",   20.0000E-03,  -50.0000E-03,   200.000E-03,   728.739E-03
C:/Users/touze/project/Shear_centre/strip/Job-1.odb,loading,Increment      1: Step Time =    1.000,"PART-1-1",          1189,   20.0000E-03,  -100.000E-03,   200.000E-03,NA,NA,"",   20.0000E-03,  -100.000E-03,   200.000E-03,   565.097E-03
C:/Users/touze/project/Shear_centre/strip/Job-1.odb,loading,Increment      1: Step Time =    1.000,"PART-1-1",          1190,   20.0000E-03,  -150.000E-03,   200.000E-03,NA,NA,"",   20.0000E-03,  -150.000E-03,   200.000E-03,   386.648E-03
C:/Users/touze/project/Shear_centre/strip/Job-1.odb,loading,Increment      1: Step Time =    1.000,"PART-1-1",          1191,   20.0000E-03,  -200.000E-03,   200.000E-03,NA,NA,"",   20.0000E-03,  -200.000E-03,   200.000E-03,   218.502E-03
C:/Users/touze/project/Shear_centre/strip/Job-1.odb,loading,Increment      1: Step Time =    1.000,"PART-1-1",          1192,   20.0000E-03,     -250.E-03,   200.000E-03,NA,NA,"",   20.0000E-03,     -250.E-03,   200.000E-03,   135.935E-03
C:/Users/touze/project/Shear_centre/strip/Job-1.odb,loading,Increment      1: Step Time =    1.000,"PART-1-1",          1193,   20.0000E-03,  -300.000E-03,   200.000E-03,NA,NA,"",   20.0000E-03,  -300.000E-03,   200.000E-03,   213.654E-03
C:/Users/touze/project/Shear_centre/strip/Job-1.odb,loading,Increment      1: Step Time =    1.000,"PART-1-1",          1194,   20.0000E-03,  -350.000E-03,   200.000E-03,NA,NA,"",   20.0000E-03,  -350.000E-03,   200.000E-03,   381.342E-03
C:/Users/touze/project/Shear_centre/strip/Job-1.odb,loading,Increment      1: Step Time =    1.000,"PART-1-1",          1195,   20.0000E-03,  -400.000E-03,   200.000E-03,NA,NA,"",   20.0000E-03,  -400.000E-03,   200.000E-03,   556.321E-03
C:/Users/touze/project/Shear_centre/strip/Job-1.odb,loading,Increment      1: Step Time =    1.000,"PART-1-1",          1196,   20.0000E-03,  -450.000E-03,   200.000E-03,NA,NA,"",   20.0000E-03,  -450.000E-03,   200.000E-03,   727.908E-03
C:/Users/touze/project/Shear_centre/strip/Job-1.odb,loading,Increment      1: Step Time =    1.000,"PART-1-1",          1197,   20.0000E-03,     -500.E-03,   200.000E-03,NA,NA,"",   20.0000E-03,     -500.E-03,   200.000E-03,   812.569E-03
C:/Users/touze/project/Shear_centre/strip/Job-1.odb,loading,Increment      1: Step Time =    1.000,"PART-1-1",          2478,  -20.0000E-03,     -500.E-03,   200.000E-03,NA,NA,"",  -20.0000E-03,     -500.E-03,   200.000E-03,   812.569E-03
C:/Users/touze/project/Shear_centre/strip/Job-1.odb,loading,Increment      1: Step Time =    1.000,"PART-1-1",          2477,  -20.0000E-03,  -450.000E-03,   200.000E-03,NA,NA,"",  -20.0000E-03,  -450.000E-03,   200.000E-03,   727.908E-03
C:/Users/touze/project/Shear_centre/strip/Job-1.odb,loading,Increment      1: Step Time =    1.000,"PART-1-1",          2476,  -20.0000E-03,  -400.000E-03,   200.000E-03,NA,NA,"",  -20.0000E-03,  -400.000E-03,   200.000E-03,   556.321E-03
C:/Users/touze/project/Shear_centre/strip/Job-1.odb,loading,Increment      1: Step Time =    1.000,"PART-1-1",          2475,  -20.0000E-03,  -350.000E-03,   200.000E-03,NA,NA,"",  -20.0000E-03,  -350.000E-03,   200.000E-03,   381.342E-03
C:/Users/touze/project/Shear_centre/strip/Job-1.odb,loading,Increment      1: Step Time =    1.000,"PART-1-1",          2474,  -20.0000E-03,  -300.000E-03,   200.000E-03,NA,NA,"",  -20.0000E-03,  -300.000E-03,   200.000E-03,   213.654E-03
C:/Users/touze/project/Shear_centre/strip/Job-1.odb,loading,Increment      1: Step Time =    1.000,"PART-1-1",          2473,  -20.0000E-03,     -250.E-03,   200.000E-03,NA,NA,"",  -20.0000E-03,     -250.E-03,   200.000E-03,   135.935E-03
C:/Users/touze/project/Shear_centre/strip/Job-1.odb,loading,Increment      1: Step Time =    1.000,"PART-1-1",          2472,  -20.0000E-03,  -200.000E-03,   200.000E-03,NA,NA,"",  -20.0000E-03,  -200.000E-03,   200.000E-03,   218.502E-03
C:/Users/touze/project/Shear_centre/strip/Job-1.odb,loading,Increment      1: Step Time =    1.000,"PART-1-1",          2471,  -20.0000E-03,  -150.000E-03,   200.000E-03,NA,NA,"",  -20.0000E-03,  -150.000E-03,   200.000E-03,   386.648E-03
C:/Users/touze/project/Shear_centre/strip/Job-1.odb,loading,Increment      1: Step Time =    1.000,"PART-1-1",          2470,  -20.0000E-03,  -100.000E-03,   200.000E-03,NA,NA,"",  -20.0000E-03,  -100.000E-03,   200.000E-03,   565.097E-03
C:/Users/touze/project/Shear_centre/strip/Job-1.odb,loading,Increment      1: Step Time =    1.000,"PART-1-1",          2469,  -20.0000E-03,  -50.0000E-03,   200.000E-03,NA,NA,"",  -20.0000E-03,  -50.0000E-03,   200.000E-03,   728.739E-03
C:/Users/touze/project/Shear_centre/strip/Job-1.odb,loading,Increment      1: Step Time =    1.000,"PART-1-1",          2468,  -20.0000E-03,            0.,   200.000E-03,NA,NA,"",  -20.0000E-03,            0.,   200.000E-03,   801.428E-03
C:/Users/touze/project/Shear_centre/strip/Job-1.odb,loading,Increment      1: Step Time =    1.000,"PART-1-1",          2467,  -20.0000E-03,   50.0000E-03,   200.000E-03,NA,NA,"",  -20.0000E-03,   50.0000E-03,   200.000E-03,   728.739E-03
C:/Users/touze/project/Shear_centre/strip/Job-1.odb,loading,Increment      1: Step Time =    1.000,"PART-1-1",          2466,  -20.0000E-03,   100.000E-03,   200.000E-03,NA,NA,"",  -20.0000E-03,   100.000E-03,   200.000E-03,   565.097E-03
C:/Users/touze/project/Shear_centre/strip/Job-1.odb,loading,Increment      1: Step Time =    1.000,"PART-1-1",          2465,  -20.0000E-03,   150.000E-03,   200.000E-03,NA,NA,"",  -20.0000E-03,   150.000E-03,   200.000E-03,   386.648E-03
C:/Users/touze/project/Shear_centre/strip/Job-1.odb,loading,Increment      1: Step Time =    1.000,"PART-1-1",          2464,  -20.0000E-03,   200.000E-03,   200.000E-03,NA,NA,"",  -20.0000E-03,   200.000E-03,   200.000E-03,   218.502E-03
C:/Users/touze/project/Shear_centre/strip/Job-1.odb,loading,Increment      1: Step Time =    1.000,"PART-1-1",          2463,  -20.0000E-03,      250.E-03,   200.000E-03,NA,NA,"",  -20.0000E-03,      250.E-03,   200.000E-03,   135.935E-03
C:/Users/touze/project/Shear_centre/strip/Job-1.odb,loading,Increment      1: Step Time =    1.000,"PART-1-1",          2462,  -20.0000E-03,   300.000E-03,   200.000E-03,NA,NA,"",  -20.0000E-03,   300.000E-03,   200.000E-03,   213.654E-03
C:/Users/touze/project/Shear_centre/strip/Job-1.odb,loading,Increment      1: Step Time =    1.000,"PART-1-1",          2461,  -20.0000E-03,   350.000E-03,   200.000E-03,NA,NA,"",  -20.0000E-03,   350.000E-03,   200.000E-03,   381.342E-03
C:/Users/touze/project/Shear_centre/strip/Job-1.odb,loading,Increment      1: Step Time =    1.000,"PART-1-1",          2460,  -20.0000E-03,   400.000E-03,   200.000E-03,NA,NA,"",  -20.0000E-03,   400.000E-03,   200.000E-03,   556.321E-03
C:/Users/touze/project/Shear_centre/strip/Job-1.odb,loading,Increment      1: Step Time =    1.000,"PART-1-1",          2459,  -20.0000E-03,   450.000E-03,   200.000E-03,NA,NA,"",  -20.0000E-03,   450.000E-03,   200.000E-03,   727.909E-03
C:/Users/touze/project/Shear_centre/strip/Job-1.odb,loading,Increment      1: Step Time =    1.000,"PART-1-1",          2458,  -20.0000E-03,      500.E-03,   200.000E-03,NA,NA,"",  -20.0000E-03,      500.E-03,   200.000E-03,   812.569E-03
C:/Users/touze/project/Shear_centre/strip/Job-1.odb,loading,Increment      1: Step Time =    1.000,"PART-1-1",          1178,   20.0000E-03,   450.000E-03,   200.000E-03,NA,NA,"",   20.0000E-03,   450.000E-03,   200.000E-03,   727.909E-03
C:/Users/touze/project/Shear_centre/strip/Job-1.odb,loading,Increment      1: Step Time =    1.000,"PART-1-1",          2456,  -20.0000E-03,  -450.000E-03,      250.E-03,NA,NA,"",  -20.0000E-03,  -450.000E-03,      250.E-03,   706.284E-03
C:/Users/touze/project/Shear_centre/strip/Job-1.odb,loading,Increment      1: Step Time =    1.000,"PART-1-1",          2455,  -20.0000E-03,  -400.000E-03,      250.E-03,NA,NA,"",  -20.0000E-03,  -400.000E-03,      250.E-03,   541.935E-03
C:/Users/touze/project/Shear_centre/strip/Job-1.odb,loading,Increment      1: Step Time =    1.000,"PART-1-1",          2454,  -20.0000E-03,  -350.000E-03,      250.E-03,NA,NA,"",  -20.0000E-03,  -350.000E-03,      250.E-03,   370.670E-03
C:/Users/touze/project/Shear_centre/strip/Job-1.odb,loading,Increment      1: Step Time =    1.000,"PART-1-1",          2453,  -20.0000E-03,  -300.000E-03,      250.E-03,NA,NA,"",  -20.0000E-03,  -300.000E-03,      250.E-03,   207.732E-03
C:/Users/touze/project/Shear_centre/strip/Job-1.odb,loading,Increment      1: Step Time =    1.000,"PART-1-1",          2452,  -20.0000E-03,     -250.E-03,      250.E-03,NA,NA,"",  -20.0000E-03,     -250.E-03,      250.E-03,   133.018E-03
C:/Users/touze/project/Shear_centre/strip/Job-1.odb,loading,Increment      1: Step Time =    1.000,"PART-1-1",          2451,  -20.0000E-03,  -200.000E-03,      250.E-03,NA,NA,"",  -20.0000E-03,  -200.000E-03,      250.E-03,   214.408E-03
C:/Users/touze/project/Shear_centre/strip/Job-1.odb,loading,Increment      1: Step Time =    1.000,"PART-1-1",          2450,  -20.0000E-03,  -150.000E-03,      250.E-03,NA,NA,"",  -20.0000E-03,  -150.000E-03,      250.E-03,   378.226E-03
C:/Users/touze/project/Shear_centre/strip/Job-1.odb,loading,Increment      1: Step Time =    1.000,"PART-1-1",          2449,  -20.0000E-03,  -100.000E-03,      250.E-03,NA,NA,"",  -20.0000E-03,  -100.000E-03,      250.E-03,   550.916E-03
C:/Users/touze/project/Shear_centre/strip/Job-1.odb,loading,Increment      1: Step Time =    1.000,"PART-1-1",          2448,  -20.0000E-03,  -50.0000E-03,      250.E-03,NA,NA,"",  -20.0000E-03,  -50.0000E-03,      250.E-03,   705.834E-03
C:/Users/touze/project/Shear_centre/strip/Job-1.odb,loading,Increment      1: Step Time =    1.000,"PART-1-1",          2447,  -20.0000E-03,            0.,      250.E-03,NA,NA,"",  -20.0000E-03,            0.,      250.E-03,   773.365E-03
C:/Users/touze/project/Shear_centre/strip/Job-1.odb,loading,Increment      1: Step Time =    1.000,"PART-1-1",          2446,  -20.0000E-03,   50.0000E-03,      250.E-03,NA,NA,"",  -20.0000E-03,   50.0000E-03,      250.E-03,   705.834E-03
C:/Users/touze/project/Shear_centre/strip/Job-1.odb,loading,Increment      1: Step Time =    1.000,"PART-1-1",          2445,  -20.0000E-03,   100.000E-03,      250.E-03,NA,NA,"",  -20.0000E-03,   100.000E-03,      250.E-03,   550.916E-03
C:/Users/touze/project/Shear_centre/strip/Job-1.odb,loading,Increment      1: Step Time =    1.000,"PART-1-1",          2444,  -20.0000E-03,   150.000E-03,      250.E-03,NA,NA,"",  -20.0000E-03,   150.000E-03,      250.E-03,   378.226E-03
C:/Users/touze/project/Shear_centre/strip/Job-1.odb,loading,Increment      1: Step Time =    1.000,"PART-1-1",          2443,  -20.0000E-03,   200.000E-03,      250.E-03,NA,NA,"",  -20.0000E-03,   200.000E-03,      250.E-03,   214.408E-03
C:/Users/touze/project/Shear_centre/strip/Job-1.odb,loading,Increment      1: Step Time =    1.000,"PART-1-1",          2442,  -20.0000E-03,      250.E-03,      250.E-03,NA,NA,"",  -20.0000E-03,      250.E-03,      250.E-03,   133.018E-03
C:/Users/touze/project/Shear_centre/strip/Job-1.odb,loading,Increment      1: Step Time =    1.000,"PART-1-1",          2441,  -20.0000E-03,   300.000E-03,      250.E-03,NA,NA,"",  -20.0000E-03,   300.000E-03,      250.E-03,   207.732E-03
C:/Users/touze/project/Shear_centre/strip/Job-1.odb,loading,Increment      1: Step Time =    1.000,"PART-1-1",          2440,  -20.0000E-03,   350.000E-03,      250.E-03,NA,NA,"",  -20.0000E-03,   350.000E-03,      250.E-03,   370.670E-03
C:/Users/touze/project/Shear_centre/strip/Job-1.odb,loading,Increment      1: Step Time =    1.000,"PART-1-1",          2439,  -20.0000E-03,   400.000E-03,      250.E-03,NA,NA,"",  -20.0000E-03,   400.000E-03,      250.E-03,   541.935E-03
C:/Users/touze/project/Shear_centre/strip/Job-1.odb,loading,Increment      1: Step Time =    1.000,"PART-1-1",          2438,  -20.0000E-03,   450.000E-03,      250.E-03,NA,NA,"",  -20.0000E-03,   450.000E-03,      250.E-03,   706.284E-03
C:/Users/touze/project/Shear_centre/strip/Job-1.odb,loading,Increment      1: Step Time =    1.000,"PART-1-1",          2437,  -20.0000E-03,      500.E-03,      250.E-03,NA,NA,"",  -20.0000E-03,      500.E-03,      250.E-03,   784.717E-03
C:/Users/touze/project/Shear_centre/strip/Job-1.odb,loading,Increment      1: Step Time =    1.000,"PART-1-1",          1176,   20.0000E-03,     -500.E-03,      250.E-03,NA,NA,"",   20.0000E-03,     -500.E-03,      250.E-03,   784.717E-03
C:/Users/touze/project/Shear_centre/strip/Job-1.odb,loading,Increment      1: Step Time =    1.000,"PART-1-1",          1175,   20.0000E-03,  -450.000E-03,      250.E-03,NA,NA,"",   20.0000E-03,  -450.000E-03,      250.E-03,   706.284E-03
C:/Users/touze/project/Shear_centre/strip/Job-1.odb,loading,Increment      1: Step Time =    1.000,"PART-1-1",          1174,   20.0000E-03,  -400.000E-03,      250.E-03,NA,NA,"",   20.0000E-03,  -400.000E-03,      250.E-03,   541.935E-03
C:/Users/touze/project/Shear_centre/strip/Job-1.odb,loading,Increment      1: Step Time =    1.000,"PART-1-1",          1173,   20.0000E-03,  -350.000E-03,      250.E-03,NA,NA,"",   20.0000E-03,  -350.000E-03,      250.E-03,   370.670E-03
C:/Users/touze/project/Shear_centre/strip/Job-1.odb,loading,Increment      1: Step Time =    1.000,"PART-1-1",          1172,   20.0000E-03,  -300.000E-03,      250.E-03,NA,NA,"",   20.0000E-03,  -300.000E-03,      250.E-03,   207.732E-03
C:/Users/touze/project/Shear_centre/strip/Job-1.odb,loading,Increment      1: Step Time =    1.000,"PART-1-1",          1171,   20.0000E-03,     -250.E-03,      250.E-03,NA,NA,"",   20.0000E-03,     -250.E-03,      250.E-03,   133.018E-03
C:/Users/touze/project/Shear_centre/strip/Job-1.odb,loading,Increment      1: Step Time =    1.000,"PART-1-1",          1170,   20.0000E-03,  -200.000E-03,      250.E-03,NA,NA,"",   20.0000E-03,  -200.000E-03,      250.E-03,   214.408E-03
C:/Users/touze/project/Shear_centre/strip/Job-1.odb,loading,Increment      1: Step Time =    1.000,"PART-1-1",          1169,   20.0000E-03,  -150.000E-03,      250.E-03,NA,NA,"",   20.0000E-03,  -150.000E-03,      250.E-03,   378.226E-03
C:/Users/touze/project/Shear_centre/strip/Job-1.odb,loading,Increment      1: Step Time =    1.000,"PART-1-1",          1168,   20.0000E-03,  -100.000E-03,      250.E-03,NA,NA,"",   20.0000E-03,  -100.000E-03,      250.E-03,   550.916E-03
C:/Users/touze/project/Shear_centre/strip/Job-1.odb,loading,Increment      1: Step Time =    1.000,"PART-1-1",          1167,   20.0000E-03,  -50.0000E-03,      250.E-03,NA,NA,"",   20.0000E-03,  -50.0000E-03,      250.E-03,   705.834E-03
C:/Users/touze/project/Shear_centre/strip/Job-1.odb,loading,Increment      1: Step Time =    1.000,"PART-1-1",          1166,   20.0000E-03,            0.,      250.E-03,NA,NA,"",   20.0000E-03,            0.,      250.E-03,   773.365E-03
C:/Users/touze/project/Shear_centre/strip/Job-1.odb,loading,Increment      1: Step Time =    1.000,"PART-1-1",          1165,   20.0000E-03,   50.0000E-03,      250.E-03,NA,NA,"",   20.0000E-03,   50.0000E-03,      250.E-03,   705.834E-03
C:/Users/touze/project/Shear_centre/strip/Job-1.odb,loading,Increment      1: Step Time =    1.000,"PART-1-1",          1164,   20.0000E-03,   100.000E-03,      250.E-03,NA,NA,"",   20.0000E-03,   100.000E-03,      250.E-03,   550.916E-03
C:/Users/touze/project/Shear_centre/strip/Job-1.odb,loading,Increment      1: Step Time =    1.000,"PART-1-1",          1163,   20.0000E-03,   150.000E-03,      250.E-03,NA,NA,"",   20.0000E-03,   150.000E-03,      250.E-03,   378.226E-03
C:/Users/touze/project/Shear_centre/strip/Job-1.odb,loading,Increment      1: Step Time =    1.000,"PART-1-1",          1162,   20.0000E-03,   200.000E-03,      250.E-03,NA,NA,"",   20.0000E-03,   200.000E-03,      250.E-03,   214.408E-03
C:/Users/touze/project/Shear_centre/strip/Job-1.odb,loading,Increment      1: Step Time =    1.000,"PART-1-1",          1161,   20.0000E-03,      250.E-03,      250.E-03,NA,NA,"",   20.0000E-03,      250.E-03,      250.E-03,   133.018E-03
C:/Users/touze/project/Shear_centre/strip/Job-1.odb,loading,Increment      1: Step Time =    1.000,"PART-1-1",          1160,   20.0000E-03,   300.000E-03,      250.E-03,NA,NA,"",   20.0000E-03,   300.000E-03,      250.E-03,   207.732E-03
C:/Users/touze/project/Shear_centre/strip/Job-1.odb,loading,Increment      1: Step Time =    1.000,"PART-1-1",          1159,   20.0000E-03,   350.000E-03,      250.E-03,NA,NA,"",   20.0000E-03,   350.000E-03,      250.E-03,   370.670E-03
C:/Users/touze/project/Shear_centre/strip/Job-1.odb,loading,Increment      1: Step Time =    1.000,"PART-1-1",          1158,   20.0000E-03,   400.000E-03,      250.E-03,NA,NA,"",   20.0000E-03,   400.000E-03,      250.E-03,   541.935E-03
C:/Users/touze/project/Shear_centre/strip/Job-1.odb,loading,Increment      1: Step Time =    1.000,"PART-1-1",          1157,   20.0000E-03,   450.000E-03,      250.E-03,NA,NA,"",   20.0000E-03,   450.000E-03,      250.E-03,   706.284E-03
C:/Users/touze/project/Shear_centre/strip/Job-1.odb,loading,Increment      1: Step Time =    1.000,"PART-1-1",          1156,   20.0000E-03,      500.E-03,      250.E-03,NA,NA,"",   20.0000E-03,      500.E-03,      250.E-03,   784.717E-03
C:/Users/touze/project/Shear_centre/strip/Job-1.odb,loading,Increment      1: Step Time =    1.000,"PART-1-1",          2457,  -20.0000E-03,     -500.E-03,      250.E-03,NA,NA,"",  -20.0000E-03,     -500.E-03,      250.E-03,   784.717E-03
C:/Users/touze/project/Shear_centre/strip/Job-1.odb,loading,Increment      1: Step Time =    1.000,"PART-1-1",          1135,   20.0000E-03,      500.E-03,   300.000E-03,NA,NA,"",   20.0000E-03,      500.E-03,   300.000E-03,   759.587E-03
C:/Users/touze/project/Shear_centre/strip/Job-1.odb,loading,Increment      1: Step Time =    1.000,"PART-1-1",          1154,   20.0000E-03,  -450.000E-03,   300.000E-03,NA,NA,"",   20.0000E-03,  -450.000E-03,   300.000E-03,   687.627E-03
C:/Users/touze/project/Shear_centre/strip/Job-1.odb,loading,Increment      1: Step Time =    1.000,"PART-1-1",          1153,   20.0000E-03,  -400.000E-03,   300.000E-03,NA,NA,"",   20.0000E-03,  -400.000E-03,   300.000E-03,   531.548E-03
C:/Users/touze/project/Shear_centre/strip/Job-1.odb,loading,Increment      1: Step Time =    1.000,"PART-1-1",          1152,   20.0000E-03,  -350.000E-03,   300.000E-03,NA,NA,"",   20.0000E-03,  -350.000E-03,   300.000E-03,   364.161E-03
C:/Users/touze/project/Shear_centre/strip/Job-1.odb,loading,Increment      1: Step Time =    1.000,"PART-1-1",          1151,   20.0000E-03,  -300.000E-03,   300.000E-03,NA,NA,"",   20.0000E-03,  -300.000E-03,   300.000E-03,   204.788E-03
C:/Users/touze/project/Shear_centre/strip/Job-1.odb,loading,Increment      1: Step Time =    1.000,"PART-1-1",          1150,   20.0000E-03,     -250.E-03,   300.000E-03,NA,NA,"",   20.0000E-03,     -250.E-03,   300.000E-03,   130.962E-03
C:/Users/touze/project/Shear_centre/strip/Job-1.odb,loading,Increment      1: Step Time =    1.000,"PART-1-1",          1149,   20.0000E-03,  -200.000E-03,   300.000E-03,NA,NA,"",   20.0000E-03,  -200.000E-03,   300.000E-03,   209.943E-03
C:/Users/touze/project/Shear_centre/strip/Job-1.odb,loading,Increment      1: Step Time =    1.000,"PART-1-1",          1148,   20.0000E-03,  -150.000E-03,   300.000E-03,NA,NA,"",   20.0000E-03,  -150.000E-03,   300.000E-03,   370.466E-03
C:/Users/touze/project/Shear_centre/strip/Job-1.odb,loading,Increment      1: Step Time =    1.000,"PART-1-1",          1147,   20.0000E-03,  -100.000E-03,   300.000E-03,NA,NA,"",   20.0000E-03,  -100.000E-03,   300.000E-03,   538.986E-03
C:/Users/touze/project/Shear_centre/strip/Job-1.odb,loading,Increment      1: Step Time =    1.000,"PART-1-1",          1146,   20.0000E-03,  -50.0000E-03,   300.000E-03,NA,NA,"",   20.0000E-03,  -50.0000E-03,   300.000E-03,   687.271E-03
C:/Users/touze/project/Shear_centre/strip/Job-1.odb,loading,Increment      1: Step Time =    1.000,"PART-1-1",          1145,   20.0000E-03,            0.,   300.000E-03,NA,NA,"",   20.0000E-03,            0.,   300.000E-03,   750.858E-03
C:/Users/touze/project/Shear_centre/strip/Job-1.odb,loading,Increment      1: Step Time =    1.000,"PART-1-1",          1144,   20.0000E-03,   50.0000E-03,   300.000E-03,NA,NA,"",   20.0000E-03,   50.0000E-03,   300.000E-03,   687.271E-03
C:/Users/touze/project/Shear_centre/strip/Job-1.odb,loading,Increment      1: Step Time =    1.000,"PART-1-1",          1143,   20.0000E-03,   100.000E-03,   300.000E-03,NA,NA,"",   20.0000E-03,   100.000E-03,   300.000E-03,   538.986E-03
C:/Users/touze/project/Shear_centre/strip/Job-1.odb,loading,Increment      1: Step Time =    1.000,"PART-1-1",          1142,   20.0000E-03,   150.000E-03,   300.000E-03,NA,NA,"",   20.0000E-03,   150.000E-03,   300.000E-03,   370.466E-03
C:/Users/touze/project/Shear_centre/strip/Job-1.odb,loading,Increment      1: Step Time =    1.000,"PART-1-1",          1141,   20.0000E-03,   200.000E-03,   300.000E-03,NA,NA,"",   20.0000E-03,   200.000E-03,   300.000E-03,   209.943E-03
C:/Users/touze/project/Shear_centre/strip/Job-1.odb,loading,Increment      1: Step Time =    1.000,"PART-1-1",          1140,   20.0000E-03,      250.E-03,   300.000E-03,NA,NA,"",   20.0000E-03,      250.E-03,   300.000E-03,   130.962E-03
C:/Users/touze/project/Shear_centre/strip/Job-1.odb,loading,Increment      1: Step Time =    1.000,"PART-1-1",          1139,   20.0000E-03,   300.000E-03,   300.000E-03,NA,NA,"",   20.0000E-03,   300.000E-03,   300.000E-03,   204.788E-03
C:/Users/touze/project/Shear_centre/strip/Job-1.odb,loading,Increment      1: Step Time =    1.000,"PART-1-1",          1138,   20.0000E-03,   350.000E-03,   300.000E-03,NA,NA,"",   20.0000E-03,   350.000E-03,   300.000E-03,   364.161E-03
C:/Users/touze/project/Shear_centre/strip/Job-1.odb,loading,Increment      1: Step Time =    1.000,"PART-1-1",          1137,   20.0000E-03,   400.000E-03,   300.000E-03,NA,NA,"",   20.0000E-03,   400.000E-03,   300.000E-03,   531.548E-03
C:/Users/touze/project/Shear_centre/strip/Job-1.odb,loading,Increment      1: Step Time =    1.000,"PART-1-1",          1136,   20.0000E-03,   450.000E-03,   300.000E-03,NA,NA,"",   20.0000E-03,   450.000E-03,   300.000E-03,   687.627E-03
C:/Users/touze/project/Shear_centre/strip/Job-1.odb,loading,Increment      1: Step Time =    1.000,"PART-1-1",          2436,  -20.0000E-03,     -500.E-03,   300.000E-03,NA,NA,"",  -20.0000E-03,     -500.E-03,   300.000E-03,   759.587E-03
C:/Users/touze/project/Shear_centre/strip/Job-1.odb,loading,Increment      1: Step Time =    1.000,"PART-1-1",          2435,  -20.0000E-03,  -450.000E-03,   300.000E-03,NA,NA,"",  -20.0000E-03,  -450.000E-03,   300.000E-03,   687.627E-03
C:/Users/touze/project/Shear_centre/strip/Job-1.odb,loading,Increment      1: Step Time =    1.000,"PART-1-1",          2434,  -20.0000E-03,  -400.000E-03,   300.000E-03,NA,NA,"",  -20.0000E-03,  -400.000E-03,   300.000E-03,   531.548E-03
C:/Users/touze/project/Shear_centre/strip/Job-1.odb,loading,Increment      1: Step Time =    1.000,"PART-1-1",          2433,  -20.0000E-03,  -350.000E-03,   300.000E-03,NA,NA,"",  -20.0000E-03,  -350.000E-03,   300.000E-03,   364.161E-03
C:/Users/touze/project/Shear_centre/strip/Job-1.odb,loading,Increment      1: Step Time =    1.000,"PART-1-1",          2432,  -20.0000E-03,  -300.000E-03,   300.000E-03,NA,NA,"",  -20.0000E-03,  -300.000E-03,   300.000E-03,   204.788E-03
C:/Users/touze/project/Shear_centre/strip/Job-1.odb,loading,Increment      1: Step Time =    1.000,"PART-1-1",          2431,  -20.0000E-03,     -250.E-03,   300.000E-03,NA,NA,"",  -20.0000E-03,     -250.E-03,   300.000E-03,   130.962E-03
C:/Users/touze/project/Shear_centre/strip/Job-1.odb,loading,Increment      1: Step Time =    1.000,"PART-1-1",          2430,  -20.0000E-03,  -200.000E-03,   300.000E-03,NA,NA,"",  -20.0000E-03,  -200.000E-03,   300.000E-03,   209.943E-03
C:/Users/touze/project/Shear_centre/strip/Job-1.odb,loading,Increment      1: Step Time =    1.000,"PART-1-1",          2429,  -20.0000E-03,  -150.000E-03,   300.000E-03,NA,NA,"",  -20.0000E-03,  -150.000E-03,   300.000E-03,   370.466E-03
C:/Users/touze/project/Shear_centre/strip/Job-1.odb,loading,Increment      1: Step Time =    1.000,"PART-1-1",          2428,  -20.0000E-03,  -100.000E-03,   300.000E-03,NA,NA,"",  -20.0000E-03,  -100.000E-03,   300.000E-03,   538.986E-03
C:/Users/touze/project/Shear_centre/strip/Job-1.odb,loading,Increment      1: Step Time =    1.000,"PART-1-1",          2427,  -20.0000E-03,  -50.0000E-03,   300.000E-03,NA,NA,"",  -20.0000E-03,  -50.0000E-03,   300.000E-03,   687.271E-03
C:/Users/touze/project/Shear_centre/strip/Job-1.odb,loading,Increment      1: Step Time =    1.000,"PART-1-1",          2426,  -20.0000E-03,            0.,   300.000E-03,NA,NA,"",  -20.0000E-03,            0.,   300.000E-03,   750.858E-03
C:/Users/touze/project/Shear_centre/strip/Job-1.odb,loading,Increment      1: Step Time =    1.000,"PART-1-1",          2425,  -20.0000E-03,   50.0000E-03,   300.000E-03,NA,NA,"",  -20.0000E-03,   50.0000E-03,   300.000E-03,   687.271E-03
C:/Users/touze/project/Shear_centre/strip/Job-1.odb,loading,Increment      1: Step Time =    1.000,"PART-1-1",          2424,  -20.0000E-03,   100.000E-03,   300.000E-03,NA,NA,"",  -20.0000E-03,   100.000E-03,   300.000E-03,   538.986E-03
C:/Users/touze/project/Shear_centre/strip/Job-1.odb,loading,Increment      1: Step Time =    1.000,"PART-1-1",          2423,  -20.0000E-03,   150.000E-03,   300.000E-03,NA,NA,"",  -20.0000E-03,   150.000E-03,   300.000E-03,   370.466E-03
C:/Users/touze/project/Shear_centre/strip/Job-1.odb,loading,Increment      1: Step Time =    1.000,"PART-1-1",          2422,  -20.0000E-03,   200.000E-03,   300.000E-03,NA,NA,"",  -20.0000E-03,   200.000E-03,   300.000E-03,   209.943E-03
C:/Users/touze/project/Shear_centre/strip/Job-1.odb,loading,Increment      1: Step Time =    1.000,"PART-1-1",          2421,  -20.0000E-03,      250.E-03,   300.000E-03,NA,NA,"",  -20.0000E-03,      250.E-03,   300.000E-03,   130.962E-03
C:/Users/touze/project/Shear_centre/strip/Job-1.odb,loading,Increment      1: Step Time =    1.000,"PART-1-1",          2420,  -20.0000E-03,   300.000E-03,   300.000E-03,NA,NA,"",  -20.0000E-03,   300.000E-03,   300.000E-03,   204.788E-03
C:/Users/touze/project/Shear_centre/strip/Job-1.odb,loading,Increment      1: Step Time =    1.000,"PART-1-1",          2419,  -20.0000E-03,   350.000E-03,   300.000E-03,NA,NA,"",  -20.0000E-03,   350.000E-03,   300.000E-03,   364.161E-03
C:/Users/touze/project/Shear_centre/strip/Job-1.odb,loading,Increment      1: Step Time =    1.000,"PART-1-1",          2418,  -20.0000E-03,   400.000E-03,   300.000E-03,NA,NA,"",  -20.0000E-03,   400.000E-03,   300.000E-03,   531.548E-03
C:/Users/touze/project/Shear_centre/strip/Job-1.odb,loading,Increment      1: Step Time =    1.000,"PART-1-1",          2417,  -20.0000E-03,   450.000E-03,   300.000E-03,NA,NA,"",  -20.0000E-03,   450.000E-03,   300.000E-03,   687.627E-03
C:/Users/touze/project/Shear_centre/strip/Job-1.odb,loading,Increment      1: Step Time =    1.000,"PART-1-1",          1155,   20.0000E-03,     -500.E-03,   300.000E-03,NA,NA,"",   20.0000E-03,     -500.E-03,   300.000E-03,   759.587E-03
C:/Users/touze/project/Shear_centre/strip/Job-1.odb,loading,Increment      1: Step Time =    1.000,"PART-1-1",          2416,  -20.0000E-03,      500.E-03,   300.000E-03,NA,NA,"",  -20.0000E-03,      500.E-03,   300.000E-03,   759.587E-03
C:/Users/touze/project/Shear_centre/strip/Job-1.odb,loading,Increment      1: Step Time =    1.000,"PART-1-1",          1134,   20.0000E-03,     -500.E-03,   350.000E-03,NA,NA,"",   20.0000E-03,     -500.E-03,   350.000E-03,   734.698E-03
C:/Users/touze/project/Shear_centre/strip/Job-1.odb,loading,Increment      1: Step Time =    1.000,"PART-1-1",          1133,   20.0000E-03,  -450.000E-03,   350.000E-03,NA,NA,"",   20.0000E-03,  -450.000E-03,   350.000E-03,   667.633E-03
C:/Users/touze/project/Shear_centre/strip/Job-1.odb,loading,Increment      1: Step Time =    1.000,"PART-1-1",          1132,   20.0000E-03,  -400.000E-03,   350.000E-03,NA,NA,"",   20.0000E-03,  -400.000E-03,   350.000E-03,   518.714E-03
C:/Users/touze/project/Shear_centre/strip/Job-1.odb,loading,Increment      1: Step Time =    1.000,"PART-1-1",          1131,   20.0000E-03,  -350.000E-03,   350.000E-03,NA,NA,"",   20.0000E-03,  -350.000E-03,   350.000E-03,   355.626E-03
C:/Users/touze/project/Shear_centre/strip/Job-1.odb,loading,Increment      1: Step Time =    1.000,"PART-1-1",          1130,   20.0000E-03,  -300.000E-03,   350.000E-03,NA,NA,"",   20.0000E-03,  -300.000E-03,   350.000E-03,   200.286E-03
C:/Users/touze/project/Shear_centre/strip/Job-1.odb,loading,Increment      1: Step Time =    1.000,"PART-1-1",          1129,   20.0000E-03,     -250.E-03,   350.000E-03,NA,NA,"",   20.0000E-03,     -250.E-03,   350.000E-03,   128.609E-03
C:/Users/touze/project/Shear_centre/strip/Job-1.odb,loading,Increment      1: Step Time =    1.000,"PART-1-1",          1128,   20.0000E-03,  -200.000E-03,   350.000E-03,NA,NA,"",   20.0000E-03,  -200.000E-03,   350.000E-03,   205.790E-03
C:/Users/touze/project/Shear_centre/strip/Job-1.odb,loading,Increment      1: Step Time =    1.000,"PART-1-1",          1127,   20.0000E-03,  -150.000E-03,   350.000E-03,NA,NA,"",   20.0000E-03,  -150.000E-03,   350.000E-03,   362.490E-03
C:/Users/touze/project/Shear_centre/strip/Job-1.odb,loading,Increment      1: Step Time =    1.000,"PART-1-1",          1126,   20.0000E-03,  -100.000E-03,   350.000E-03,NA,NA,"",   20.0000E-03,  -100.000E-03,   350.000E-03,   525.942E-03
C:/Users/touze/project/Shear_centre/strip/Job-1.odb,loading,Increment      1: Step Time =    1.000,"PART-1-1",          1125,   20.0000E-03,  -50.0000E-03,   350.000E-03,NA,NA,"",   20.0000E-03,  -50.0000E-03,   350.000E-03,   667.040E-03
C:/Users/touze/project/Shear_centre/strip/Job-1.odb,loading,Increment      1: Step Time =    1.000,"PART-1-1",          1114,   20.0000E-03,      500.E-03,   350.000E-03,NA,NA,"",   20.0000E-03,      500.E-03,   350.000E-03,   734.698E-03
C:/Users/touze/project/Shear_centre/strip/Job-1.odb,loading,Increment      1: Step Time =    1.000,"PART-1-1",          1124,   20.0000E-03,            0.,   350.000E-03,NA,NA,"",   20.0000E-03,            0.,   350.000E-03,   726.635E-03
C:/Users/touze/project/Shear_centre/strip/Job-1.odb,loading,Increment      1: Step Time =    1.000,"PART-1-1",          1123,   20.0000E-03,   50.0000E-03,   350.000E-03,NA,NA,"",   20.0000E-03,   50.0000E-03,   350.000E-03,   667.040E-03
C:/Users/touze/project/Shear_centre/strip/Job-1.odb,loading,Increment      1: Step Time =    1.000,"PART-1-1",          1122,   20.0000E-03,   100.000E-03,   350.000E-03,NA,NA,"",   20.0000E-03,   100.000E-03,   350.000E-03,   525.942E-03
C:/Users/touze/project/Shear_centre/strip/Job-1.odb,loading,Increment      1: Step Time =    1.000,"PART-1-1",          1121,   20.0000E-03,   150.000E-03,   350.000E-03,NA,NA,"",   20.0000E-03,   150.000E-03,   350.000E-03,   362.490E-03
C:/Users/touze/project/Shear_centre/strip/Job-1.odb,loading,Increment      1: Step Time =    1.000,"PART-1-1",          1120,   20.0000E-03,   200.000E-03,   350.000E-03,NA,NA,"",   20.0000E-03,   200.000E-03,   350.000E-03,   205.790E-03
C:/Users/touze/project/Shear_centre/strip/Job-1.odb,loading,Increment      1: Step Time =    1.000,"PART-1-1",          1119,   20.0000E-03,      250.E-03,   350.000E-03,NA,NA,"",   20.0000E-03,      250.E-03,   350.000E-03,   128.609E-03
C:/Users/touze/project/Shear_centre/strip/Job-1.odb,loading,Increment      1: Step Time =    1.000,"PART-1-1",          1118,   20.0000E-03,   300.000E-03,   350.000E-03,NA,NA,"",   20.0000E-03,   300.000E-03,   350.000E-03,   200.286E-03
C:/Users/touze/project/Shear_centre/strip/Job-1.odb,loading,Increment      1: Step Time =    1.000,"PART-1-1",          1117,   20.0000E-03,   350.000E-03,   350.000E-03,NA,NA,"",   20.0000E-03,   350.000E-03,   350.000E-03,   355.626E-03
C:/Users/touze/project/Shear_centre/strip/Job-1.odb,loading,Increment      1: Step Time =    1.000,"PART-1-1",          1116,   20.0000E-03,   400.000E-03,   350.000E-03,NA,NA,"",   20.0000E-03,   400.000E-03,   350.000E-03,   518.714E-03
C:/Users/touze/project/Shear_centre/strip/Job-1.odb,loading,Increment      1: Step Time =    1.000,"PART-1-1",          2396,  -20.0000E-03,   450.000E-03,   350.000E-03,NA,NA,"",  -20.0000E-03,   450.000E-03,   350.000E-03,   667.633E-03
C:/Users/touze/project/Shear_centre/strip/Job-1.odb,loading,Increment      1: Step Time =    1.000,"PART-1-1",          1115,   20.0000E-03,   450.000E-03,   350.000E-03,NA,NA,"",   20.0000E-03,   450.000E-03,   350.000E-03,   667.633E-03
C:/Users/touze/project/Shear_centre/strip/Job-1.odb,loading,Increment      1: Step Time =    1.000,"PART-1-1",          2397,  -20.0000E-03,   400.000E-03,   350.000E-03,NA,NA,"",  -20.0000E-03,   400.000E-03,   350.000E-03,   518.714E-03
C:/Users/touze/project/Shear_centre/strip/Job-1.odb,loading,Increment      1: Step Time =    1.000,"PART-1-1",          2398,  -20.0000E-03,   350.000E-03,   350.000E-03,NA,NA,"",  -20.0000E-03,   350.000E-03,   350.000E-03,   355.626E-03
C:/Users/touze/project/Shear_centre/strip/Job-1.odb,loading,Increment      1: Step Time =    1.000,"PART-1-1",          2399,  -20.0000E-03,   300.000E-03,   350.000E-03,NA,NA,"",  -20.0000E-03,   300.000E-03,   350.000E-03,   200.286E-03
C:/Users/touze/project/Shear_centre/strip/Job-1.odb,loading,Increment      1: Step Time =    1.000,"PART-1-1",          2400,  -20.0000E-03,      250.E-03,   350.000E-03,NA,NA,"",  -20.0000E-03,      250.E-03,   350.000E-03,   128.609E-03
C:/Users/touze/project/Shear_centre/strip/Job-1.odb,loading,Increment      1: Step Time =    1.000,"PART-1-1",          2401,  -20.0000E-03,   200.000E-03,   350.000E-03,NA,NA,"",  -20.0000E-03,   200.000E-03,   350.000E-03,   205.790E-03
C:/Users/touze/project/Shear_centre/strip/Job-1.odb,loading,Increment      1: Step Time =    1.000,"PART-1-1",          2402,  -20.0000E-03,   150.000E-03,   350.000E-03,NA,NA,"",  -20.0000E-03,   150.000E-03,   350.000E-03,   362.490E-03
C:/Users/touze/project/Shear_centre/strip/Job-1.odb,loading,Increment      1: Step Time =    1.000,"PART-1-1",          2403,  -20.0000E-03,   100.000E-03,   350.000E-03,NA,NA,"",  -20.0000E-03,   100.000E-03,   350.000E-03,   525.942E-03
C:/Users/touze/project/Shear_centre/strip/Job-1.odb,loading,Increment      1: Step Time =    1.000,"PART-1-1",          2404,  -20.0000E-03,   50.0000E-03,   350.000E-03,NA,NA,"",  -20.0000E-03,   50.0000E-03,   350.000E-03,   667.040E-03
C:/Users/touze/project/Shear_centre/strip/Job-1.odb,loading,Increment      1: Step Time =    1.000,"PART-1-1",          2405,  -20.0000E-03,            0.,   350.000E-03,NA,NA,"",  -20.0000E-03,            0.,   350.000E-03,   726.635E-03
C:/Users/touze/project/Shear_centre/strip/Job-1.odb,loading,Increment      1: Step Time =    1.000,"PART-1-1",          2406,  -20.0000E-03,  -50.0000E-03,   350.000E-03,NA,NA,"",  -20.0000E-03,  -50.0000E-03,   350.000E-03,   667.040E-03
C:/Users/touze/project/Shear_centre/strip/Job-1.odb,loading,Increment      1: Step Time =    1.000,"PART-1-1",          2407,  -20.0000E-03,  -100.000E-03,   350.000E-03,NA,NA,"",  -20.0000E-03,  -100.000E-03,   350.000E-03,   525.942E-03
C:/Users/touze/project/Shear_centre/strip/Job-1.odb,loading,Increment      1: Step Time =    1.000,"PART-1-1",          2408,  -20.0000E-03,  -150.000E-03,   350.000E-03,NA,NA,"",  -20.0000E-03,  -150.000E-03,   350.000E-03,   362.490E-03
C:/Users/touze/project/Shear_centre/strip/Job-1.odb,loading,Increment      1: Step Time =    1.000,"PART-1-1",          2409,  -20.0000E-03,  -200.000E-03,   350.000E-03,NA,NA,"",  -20.0000E-03,  -200.000E-03,   350.000E-03,   205.790E-03
C:/Users/touze/project/Shear_centre/strip/Job-1.odb,loading,Increment      1: Step Time =    1.000,"PART-1-1",          2410,  -20.0000E-03,     -250.E-03,   350.000E-03,NA,NA,"",  -20.0000E-03,     -250.E-03,   350.000E-03,   128.609E-03
C:/Users/touze/project/Shear_centre/strip/Job-1.odb,loading,Increment      1: Step Time =    1.000,"PART-1-1",          2411,  -20.0000E-03,  -300.000E-03,   350.000E-03,NA,NA,"",  -20.0000E-03,  -300.000E-03,   350.000E-03,   200.286E-03
C:/Users/touze/project/Shear_centre/strip/Job-1.odb,loading,Increment      1: Step Time =    1.000,"PART-1-1",          2412,  -20.0000E-03,  -350.000E-03,   350.000E-03,NA,NA,"",  -20.0000E-03,  -350.000E-03,   350.000E-03,   355.626E-03
C:/Users/touze/project/Shear_centre/strip/Job-1.odb,loading,Increment      1: Step Time =    1.000,"PART-1-1",          2413,  -20.0000E-03,  -400.000E-03,   350.000E-03,NA,NA,"",  -20.0000E-03,  -400.000E-03,   350.000E-03,   518.714E-03
C:/Users/touze/project/Shear_centre/strip/Job-1.odb,loading,Increment      1: Step Time =    1.000,"PART-1-1",          2414,  -20.0000E-03,  -450.000E-03,   350.000E-03,NA,NA,"",  -20.0000E-03,  -450.000E-03,   350.000E-03,   667.633E-03
C:/Users/touze/project/Shear_centre/strip/Job-1.odb,loading,Increment      1: Step Time =    1.000,"PART-1-1",          2415,  -20.0000E-03,     -500.E-03,   350.000E-03,NA,NA,"",  -20.0000E-03,     -500.E-03,   350.000E-03,   734.698E-03
C:/Users/touze/project/Shear_centre/strip/Job-1.odb,loading,Increment      1: Step Time =    1.000,"PART-1-1",          2395,  -20.0000E-03,      500.E-03,   350.000E-03,NA,NA,"",  -20.0000E-03,      500.E-03,   350.000E-03,   734.698E-03
C:/Users/touze/project/Shear_centre/strip/Job-1.odb,loading,Increment      1: Step Time =    1.000,"PART-1-1",          2393,  -20.0000E-03,  -450.000E-03,   400.000E-03,NA,NA,"",  -20.0000E-03,  -450.000E-03,   400.000E-03,   649.080E-03
C:/Users/touze/project/Shear_centre/strip/Job-1.odb,loading,Increment      1: Step Time =    1.000,"PART-1-1",          2392,  -20.0000E-03,  -400.000E-03,   400.000E-03,NA,NA,"",  -20.0000E-03,  -400.000E-03,   400.000E-03,   507.263E-03
C:/Users/touze/project/Shear_centre/strip/Job-1.odb,loading,Increment      1: Step Time =    1.000,"PART-1-1",          2391,  -20.0000E-03,  -350.000E-03,   400.000E-03,NA,NA,"",  -20.0000E-03,  -350.000E-03,   400.000E-03,   348.342E-03
C:/Users/touze/project/Shear_centre/strip/Job-1.odb,loading,Increment      1: Step Time =    1.000,"PART-1-1",          2390,  -20.0000E-03,  -300.000E-03,   400.000E-03,NA,NA,"",  -20.0000E-03,  -300.000E-03,   400.000E-03,   196.548E-03
C:/Users/touze/project/Shear_centre/strip/Job-1.odb,loading,Increment      1: Step Time =    1.000,"PART-1-1",          2389,  -20.0000E-03,     -250.E-03,   400.000E-03,NA,NA,"",  -20.0000E-03,     -250.E-03,   400.000E-03,   126.409E-03
C:/Users/touze/project/Shear_centre/strip/Job-1.odb,loading,Increment      1: Step Time =    1.000,"PART-1-1",          2388,  -20.0000E-03,  -200.000E-03,   400.000E-03,NA,NA,"",  -20.0000E-03,  -200.000E-03,   400.000E-03,   201.546E-03
C:/Users/touze/project/Shear_centre/strip/Job-1.odb,loading,Increment      1: Step Time =    1.000,"PART-1-1",          2387,  -20.0000E-03,  -150.000E-03,   400.000E-03,NA,NA,"",  -20.0000E-03,  -150.000E-03,   400.000E-03,   354.628E-03
C:/Users/touze/project/Shear_centre/strip/Job-1.odb,loading,Increment      1: Step Time =    1.000,"PART-1-1",          2386,  -20.0000E-03,  -100.000E-03,   400.000E-03,NA,NA,"",  -20.0000E-03,  -100.000E-03,   400.000E-03,   513.489E-03
C:/Users/touze/project/Shear_centre/strip/Job-1.odb,loading,Increment      1: Step Time =    1.000,"PART-1-1",          2385,  -20.0000E-03,  -50.0000E-03,   400.000E-03,NA,NA,"",  -20.0000E-03,  -50.0000E-03,   400.000E-03,   648.457E-03
C:/Users/touze/project/Shear_centre/strip/Job-1.odb,loading,Increment      1: Step Time =    1.000,"PART-1-1",          2384,  -20.0000E-03,            0.,   400.000E-03,NA,NA,"",  -20.0000E-03,            0.,   400.000E-03,   704.726E-03
C:/Users/touze/project/Shear_centre/strip/Job-1.odb,loading,Increment      1: Step Time =    1.000,"PART-1-1",          2382,  -20.0000E-03,   100.000E-03,   400.000E-03,NA,NA,"",  -20.0000E-03,   100.000E-03,   400.000E-03,   513.489E-03
C:/Users/touze/project/Shear_centre/strip/Job-1.odb,loading,Increment      1: Step Time =    1.000,"PART-1-1",          2381,  -20.0000E-03,   150.000E-03,   400.000E-03,NA,NA,"",  -20.0000E-03,   150.000E-03,   400.000E-03,   354.628E-03
C:/Users/touze/project/Shear_centre/strip/Job-1.odb,loading,Increment      1: Step Time =    1.000,"PART-1-1",          2380,  -20.0000E-03,   200.000E-03,   400.000E-03,NA,NA,"",  -20.0000E-03,   200.000E-03,   400.000E-03,   201.546E-03
C:/Users/touze/project/Shear_centre/strip/Job-1.odb,loading,Increment      1: Step Time =    1.000,"PART-1-1",          2379,  -20.0000E-03,      250.E-03,   400.000E-03,NA,NA,"",  -20.0000E-03,      250.E-03,   400.000E-03,   126.409E-03
C:/Users/touze/project/Shear_centre/strip/Job-1.odb,loading,Increment      1: Step Time =    1.000,"PART-1-1",          2378,  -20.0000E-03,   300.000E-03,   400.000E-03,NA,NA,"",  -20.0000E-03,   300.000E-03,   400.000E-03,   196.548E-03
C:/Users/touze/project/Shear_centre/strip/Job-1.odb,loading,Increment      1: Step Time =    1.000,"PART-1-1",          2377,  -20.0000E-03,   350.000E-03,   400.000E-03,NA,NA,"",  -20.0000E-03,   350.000E-03,   400.000E-03,   348.342E-03
C:/Users/touze/project/Shear_centre/strip/Job-1.odb,loading,Increment      1: Step Time =    1.000,"PART-1-1",          2376,  -20.0000E-03,   400.000E-03,   400.000E-03,NA,NA,"",  -20.0000E-03,   400.000E-03,   400.000E-03,   507.263E-03
C:/Users/touze/project/Shear_centre/strip/Job-1.odb,loading,Increment      1: Step Time =    1.000,"PART-1-1",          2375,  -20.0000E-03,   450.000E-03,   400.000E-03,NA,NA,"",  -20.0000E-03,   450.000E-03,   400.000E-03,   649.080E-03
C:/Users/touze/project/Shear_centre/strip/Job-1.odb,loading,Increment      1: Step Time =    1.000,"PART-1-1",          2374,  -20.0000E-03,      500.E-03,   400.000E-03,NA,NA,"",  -20.0000E-03,      500.E-03,   400.000E-03,   711.411E-03
C:/Users/touze/project/Shear_centre/strip/Job-1.odb,loading,Increment      1: Step Time =    1.000,"PART-1-1",          2394,  -20.0000E-03,     -500.E-03,   400.000E-03,NA,NA,"",  -20.0000E-03,     -500.E-03,   400.000E-03,   711.411E-03
C:/Users/touze/project/Shear_centre/strip/Job-1.odb,loading,Increment      1: Step Time =    1.000,"PART-1-1",          2383,  -20.0000E-03,   50.0000E-03,   400.000E-03,NA,NA,"",  -20.0000E-03,   50.0000E-03,   400.000E-03,   648.457E-03
C:/Users/touze/project/Shear_centre/strip/Job-1.odb,loading,Increment      1: Step Time =    1.000,"PART-1-1",          1113,   20.0000E-03,     -500.E-03,   400.000E-03,NA,NA,"",   20.0000E-03,     -500.E-03,   400.000E-03,   711.411E-03
C:/Users/touze/project/Shear_centre/strip/Job-1.odb,loading,Increment      1: Step Time =    1.000,"PART-1-1",          1112,   20.0000E-03,  -450.000E-03,   400.000E-03,NA,NA,"",   20.0000E-03,  -450.000E-03,   400.000E-03,   649.080E-03
C:/Users/touze/project/Shear_centre/strip/Job-1.odb,loading,Increment      1: Step Time =    1.000,"PART-1-1",          1111,   20.0000E-03,  -400.000E-03,   400.000E-03,NA,NA,"",   20.0000E-03,  -400.000E-03,   400.000E-03,   507.263E-03
C:/Users/touze/project/Shear_centre/strip/Job-1.odb,loading,Increment      1: Step Time =    1.000,"PART-1-1",          1110,   20.0000E-03,  -350.000E-03,   400.000E-03,NA,NA,"",   20.0000E-03,  -350.000E-03,   400.000E-03,   348.342E-03
C:/Users/touze/project/Shear_centre/strip/Job-1.odb,loading,Increment      1: Step Time =    1.000,"PART-1-1",          1109,   20.0000E-03,  -300.000E-03,   400.000E-03,NA,NA,"",   20.0000E-03,  -300.000E-03,   400.000E-03,   196.548E-03
C:/Users/touze/project/Shear_centre/strip/Job-1.odb,loading,Increment      1: Step Time =    1.000,"PART-1-1",          1108,   20.0000E-03,     -250.E-03,   400.000E-03,NA,NA,"",   20.0000E-03,     -250.E-03,   400.000E-03,   126.409E-03
C:/Users/touze/project/Shear_centre/strip/Job-1.odb,loading,Increment      1: Step Time =    1.000,"PART-1-1",          1107,   20.0000E-03,  -200.000E-03,   400.000E-03,NA,NA,"",   20.0000E-03,  -200.000E-03,   400.000E-03,   201.546E-03
C:/Users/touze/project/Shear_centre/strip/Job-1.odb,loading,Increment      1: Step Time =    1.000,"PART-1-1",          1106,   20.0000E-03,  -150.000E-03,   400.000E-03,NA,NA,"",   20.0000E-03,  -150.000E-03,   400.000E-03,   354.628E-03
C:/Users/touze/project/Shear_centre/strip/Job-1.odb,loading,Increment      1: Step Time =    1.000,"PART-1-1",          1105,   20.0000E-03,  -100.000E-03,   400.000E-03,NA,NA,"",   20.0000E-03,  -100.000E-03,   400.000E-03,   513.489E-03
C:/Users/touze/project/Shear_centre/strip/Job-1.odb,loading,Increment      1: Step Time =    1.000,"PART-1-1",          1104,   20.0000E-03,  -50.0000E-03,   400.000E-03,NA,NA,"",   20.0000E-03,  -50.0000E-03,   400.000E-03,   648.457E-03
C:/Users/touze/project/Shear_centre/strip/Job-1.odb,loading,Increment      1: Step Time =    1.000,"PART-1-1",          1103,   20.0000E-03,            0.,   400.000E-03,NA,NA,"",   20.0000E-03,            0.,   400.000E-03,   704.726E-03
C:/Users/touze/project/Shear_centre/strip/Job-1.odb,loading,Increment      1: Step Time =    1.000,"PART-1-1",          1102,   20.0000E-03,   50.0000E-03,   400.000E-03,NA,NA,"",   20.0000E-03,   50.0000E-03,   400.000E-03,   648.457E-03
C:/Users/touze/project/Shear_centre/strip/Job-1.odb,loading,Increment      1: Step Time =    1.000,"PART-1-1",          1101,   20.0000E-03,   100.000E-03,   400.000E-03,NA,NA,"",   20.0000E-03,   100.000E-03,   400.000E-03,   513.489E-03
C:/Users/touze/project/Shear_centre/strip/Job-1.odb,loading,Increment      1: Step Time =    1.000,"PART-1-1",          1100,   20.0000E-03,   150.000E-03,   400.000E-03,NA,NA,"",   20.0000E-03,   150.000E-03,   400.000E-03,   354.628E-03
C:/Users/touze/project/Shear_centre/strip/Job-1.odb,loading,Increment      1: Step Time =    1.000,"PART-1-1",          1099,   20.0000E-03,   200.000E-03,   400.000E-03,NA,NA,"",   20.0000E-03,   200.000E-03,   400.000E-03,   201.546E-03
C:/Users/touze/project/Shear_centre/strip/Job-1.odb,loading,Increment      1: Step Time =    1.000,"PART-1-1",          1098,   20.0000E-03,      250.E-03,   400.000E-03,NA,NA,"",   20.0000E-03,      250.E-03,   400.000E-03,   126.409E-03
C:/Users/touze/project/Shear_centre/strip/Job-1.odb,loading,Increment      1: Step Time =    1.000,"PART-1-1",          1097,   20.0000E-03,   300.000E-03,   400.000E-03,NA,NA,"",   20.0000E-03,   300.000E-03,   400.000E-03,   196.548E-03
C:/Users/touze/project/Shear_centre/strip/Job-1.odb,loading,Increment      1: Step Time =    1.000,"PART-1-1",          1096,   20.0000E-03,   350.000E-03,   400.000E-03,NA,NA,"",   20.0000E-03,   350.000E-03,   400.000E-03,   348.342E-03
C:/Users/touze/project/Shear_centre/strip/Job-1.odb,loading,Increment      1: Step Time =    1.000,"PART-1-1",          1095,   20.0000E-03,   400.000E-03,   400.000E-03,NA,NA,"",   20.0000E-03,   400.000E-03,   400.000E-03,   507.263E-03
C:/Users/touze/project/Shear_centre/strip/Job-1.odb,loading,Increment      1: Step Time =    1.000,"PART-1-1",          1094,   20.0000E-03,   450.000E-03,   400.000E-03,NA,NA,"",   20.0000E-03,   450.000E-03,   400.000E-03,   649.080E-03
C:/Users/touze/project/Shear_centre/strip/Job-1.odb,loading,Increment      1: Step Time =    1.000,"PART-1-1",          1093,   20.0000E-03,      500.E-03,   400.000E-03,NA,NA,"",   20.0000E-03,      500.E-03,   400.000E-03,   711.411E-03
C:/Users/touze/project/Shear_centre/strip/Job-1.odb,loading,Increment      1: Step Time =    1.000,"PART-1-1",          2373,  -20.0000E-03,     -500.E-03,   450.000E-03,NA,NA,"",  -20.0000E-03,     -500.E-03,   450.000E-03,   688.601E-03
C:/Users/touze/project/Shear_centre/strip/Job-1.odb,loading,Increment      1: Step Time =    1.000,"PART-1-1",          1091,   20.0000E-03,  -450.000E-03,   450.000E-03,NA,NA,"",   20.0000E-03,  -450.000E-03,   450.000E-03,   630.192E-03
C:/Users/touze/project/Shear_centre/strip/Job-1.odb,loading,Increment      1: Step Time =    1.000,"PART-1-1",          1090,   20.0000E-03,  -400.000E-03,   450.000E-03,NA,NA,"",   20.0000E-03,  -400.000E-03,   450.000E-03,   494.910E-03
C:/Users/touze/project/Shear_centre/strip/Job-1.odb,loading,Increment      1: Step Time =    1.000,"PART-1-1",          1089,   20.0000E-03,  -350.000E-03,   450.000E-03,NA,NA,"",   20.0000E-03,  -350.000E-03,   450.000E-03,   340.497E-03
C:/Users/touze/project/Shear_centre/strip/Job-1.odb,loading,Increment      1: Step Time =    1.000,"PART-1-1",          1088,   20.0000E-03,  -300.000E-03,   450.000E-03,NA,NA,"",   20.0000E-03,  -300.000E-03,   450.000E-03,   192.458E-03
C:/Users/touze/project/Shear_centre/strip/Job-1.odb,loading,Increment      1: Step Time =    1.000,"PART-1-1",          1087,   20.0000E-03,     -250.E-03,   450.000E-03,NA,NA,"",   20.0000E-03,     -250.E-03,   450.000E-03,   124.128E-03
C:/Users/touze/project/Shear_centre/strip/Job-1.odb,loading,Increment      1: Step Time =    1.000,"PART-1-1",          1086,   20.0000E-03,  -200.000E-03,   450.000E-03,NA,NA,"",   20.0000E-03,  -200.000E-03,   450.000E-03,   197.421E-03
C:/Users/touze/project/Shear_centre/strip/Job-1.odb,loading,Increment      1: Step Time =    1.000,"PART-1-1",          1085,   20.0000E-03,  -150.000E-03,   450.000E-03,NA,NA,"",   20.0000E-03,  -150.000E-03,   450.000E-03,   346.805E-03
C:/Users/touze/project/Shear_centre/strip/Job-1.odb,loading,Increment      1: Step Time =    1.000,"PART-1-1",          1084,   20.0000E-03,  -100.000E-03,   450.000E-03,NA,NA,"",   20.0000E-03,  -100.000E-03,   450.000E-03,   500.835E-03
C:/Users/touze/project/Shear_centre/strip/Job-1.odb,loading,Increment      1: Step Time =    1.000,"PART-1-1",          1083,   20.0000E-03,  -50.0000E-03,   450.000E-03,NA,NA,"",   20.0000E-03,  -50.0000E-03,   450.000E-03,   629.617E-03
C:/Users/touze/project/Shear_centre/strip/Job-1.odb,loading,Increment      1: Step Time =    1.000,"PART-1-1",          1082,   20.0000E-03,            0.,   450.000E-03,NA,NA,"",   20.0000E-03,            0.,   450.000E-03,   682.626E-03
C:/Users/touze/project/Shear_centre/strip/Job-1.odb,loading,Increment      1: Step Time =    1.000,"PART-1-1",          1081,   20.0000E-03,   50.0000E-03,   450.000E-03,NA,NA,"",   20.0000E-03,   50.0000E-03,   450.000E-03,   629.617E-03
C:/Users/touze/project/Shear_centre/strip/Job-1.odb,loading,Increment      1: Step Time =    1.000,"PART-1-1",          1080,   20.0000E-03,   100.000E-03,   450.000E-03,NA,NA,"",   20.0000E-03,   100.000E-03,   450.000E-03,   500.835E-03
C:/Users/touze/project/Shear_centre/strip/Job-1.odb,loading,Increment      1: Step Time =    1.000,"PART-1-1",          1079,   20.0000E-03,   150.000E-03,   450.000E-03,NA,NA,"",   20.0000E-03,   150.000E-03,   450.000E-03,   346.805E-03
C:/Users/touze/project/Shear_centre/strip/Job-1.odb,loading,Increment      1: Step Time =    1.000,"PART-1-1",          1078,   20.0000E-03,   200.000E-03,   450.000E-03,NA,NA,"",   20.0000E-03,   200.000E-03,   450.000E-03,   197.421E-03
C:/Users/touze/project/Shear_centre/strip/Job-1.odb,loading,Increment      1: Step Time =    1.000,"PART-1-1",          1077,   20.0000E-03,      250.E-03,   450.000E-03,NA,NA,"",   20.0000E-03,      250.E-03,   450.000E-03,   124.128E-03
C:/Users/touze/project/Shear_centre/strip/Job-1.odb,loading,Increment      1: Step Time =    1.000,"PART-1-1",          1076,   20.0000E-03,   300.000E-03,   450.000E-03,NA,NA,"",   20.0000E-03,   300.000E-03,   450.000E-03,   192.458E-03
C:/Users/touze/project/Shear_centre/strip/Job-1.odb,loading,Increment      1: Step Time =    1.000,"PART-1-1",          1075,   20.0000E-03,   350.000E-03,   450.000E-03,NA,NA,"",   20.0000E-03,   350.000E-03,   450.000E-03,   340.497E-03
C:/Users/touze/project/Shear_centre/strip/Job-1.odb,loading,Increment      1: Step Time =    1.000,"PART-1-1",          1074,   20.0000E-03,   400.000E-03,   450.000E-03,NA,NA,"",   20.0000E-03,   400.000E-03,   450.000E-03,   494.910E-03
C:/Users/touze/project/Shear_centre/strip/Job-1.odb,loading,Increment      1: Step Time =    1.000,"PART-1-1",          1073,   20.0000E-03,   450.000E-03,   450.000E-03,NA,NA,"",   20.0000E-03,   450.000E-03,   450.000E-03,   630.192E-03
C:/Users/touze/project/Shear_centre/strip/Job-1.odb,loading,Increment      1: Step Time =    1.000,"PART-1-1",          2372,  -20.0000E-03,  -450.000E-03,   450.000E-03,NA,NA,"",  -20.0000E-03,  -450.000E-03,   450.000E-03,   630.192E-03
C:/Users/touze/project/Shear_centre/strip/Job-1.odb,loading,Increment      1: Step Time =    1.000,"PART-1-1",          1072,   20.0000E-03,      500.E-03,   450.000E-03,NA,NA,"",   20.0000E-03,      500.E-03,   450.000E-03,   688.601E-03
C:/Users/touze/project/Shear_centre/strip/Job-1.odb,loading,Increment      1: Step Time =    1.000,"PART-1-1",          2371,  -20.0000E-03,  -400.000E-03,   450.000E-03,NA,NA,"",  -20.0000E-03,  -400.000E-03,   450.000E-03,   494.910E-03
C:/Users/touze/project/Shear_centre/strip/Job-1.odb,loading,Increment      1: Step Time =    1.000,"PART-1-1",          2370,  -20.0000E-03,  -350.000E-03,   450.000E-03,NA,NA,"",  -20.0000E-03,  -350.000E-03,   450.000E-03,   340.497E-03
C:/Users/touze/project/Shear_centre/strip/Job-1.odb,loading,Increment      1: Step Time =    1.000,"PART-1-1",          2369,  -20.0000E-03,  -300.000E-03,   450.000E-03,NA,NA,"",  -20.0000E-03,  -300.000E-03,   450.000E-03,   192.458E-03
C:/Users/touze/project/Shear_centre/strip/Job-1.odb,loading,Increment      1: Step Time =    1.000,"PART-1-1",          2368,  -20.0000E-03,     -250.E-03,   450.000E-03,NA,NA,"",  -20.0000E-03,     -250.E-03,   450.000E-03,   124.128E-03
C:/Users/touze/project/Shear_centre/strip/Job-1.odb,loading,Increment      1: Step Time =    1.000,"PART-1-1",          2367,  -20.0000E-03,  -200.000E-03,   450.000E-03,NA,NA,"",  -20.0000E-03,  -200.000E-03,   450.000E-03,   197.421E-03
C:/Users/touze/project/Shear_centre/strip/Job-1.odb,loading,Increment      1: Step Time =    1.000,"PART-1-1",          2366,  -20.0000E-03,  -150.000E-03,   450.000E-03,NA,NA,"",  -20.0000E-03,  -150.000E-03,   450.000E-03,   346.805E-03
C:/Users/touze/project/Shear_centre/strip/Job-1.odb,loading,Increment      1: Step Time =    1.000,"PART-1-1",          2365,  -20.0000E-03,  -100.000E-03,   450.000E-03,NA,NA,"",  -20.0000E-03,  -100.000E-03,   450.000E-03,   500.835E-03
C:/Users/touze/project/Shear_centre/strip/Job-1.odb,loading,Increment      1: Step Time =    1.000,"PART-1-1",          2364,  -20.0000E-03,  -50.0000E-03,   450.000E-03,NA,NA,"",  -20.0000E-03,  -50.0000E-03,   450.000E-03,   629.617E-03
C:/Users/touze/project/Shear_centre/strip/Job-1.odb,loading,Increment      1: Step Time =    1.000,"PART-1-1",          2363,  -20.0000E-03,            0.,   450.000E-03,NA,NA,"",  -20.0000E-03,            0.,   450.000E-03,   682.626E-03
C:/Users/touze/project/Shear_centre/strip/Job-1.odb,loading,Increment      1: Step Time =    1.000,"PART-1-1",          2362,  -20.0000E-03,   50.0000E-03,   450.000E-03,NA,NA,"",  -20.0000E-03,   50.0000E-03,   450.000E-03,   629.617E-03
C:/Users/touze/project/Shear_centre/strip/Job-1.odb,loading,Increment      1: Step Time =    1.000,"PART-1-1",          2361,  -20.0000E-03,   100.000E-03,   450.000E-03,NA,NA,"",  -20.0000E-03,   100.000E-03,   450.000E-03,   500.835E-03
C:/Users/touze/project/Shear_centre/strip/Job-1.odb,loading,Increment      1: Step Time =    1.000,"PART-1-1",          2360,  -20.0000E-03,   150.000E-03,   450.000E-03,NA,NA,"",  -20.0000E-03,   150.000E-03,   450.000E-03,   346.805E-03
C:/Users/touze/project/Shear_centre/strip/Job-1.odb,loading,Increment      1: Step Time =    1.000,"PART-1-1",          2359,  -20.0000E-03,   200.000E-03,   450.000E-03,NA,NA,"",  -20.0000E-03,   200.000E-03,   450.000E-03,   197.421E-03
C:/Users/touze/project/Shear_centre/strip/Job-1.odb,loading,Increment      1: Step Time =    1.000,"PART-1-1",          2358,  -20.0000E-03,      250.E-03,   450.000E-03,NA,NA,"",  -20.0000E-03,      250.E-03,   450.000E-03,   124.128E-03
C:/Users/touze/project/Shear_centre/strip/Job-1.odb,loading,Increment      1: Step Time =    1.000,"PART-1-1",          2357,  -20.0000E-03,   300.000E-03,   450.000E-03,NA,NA,"",  -20.0000E-03,   300.000E-03,   450.000E-03,   192.458E-03
C:/Users/touze/project/Shear_centre/strip/Job-1.odb,loading,Increment      1: Step Time =    1.000,"PART-1-1",          2356,  -20.0000E-03,   350.000E-03,   450.000E-03,NA,NA,"",  -20.0000E-03,   350.000E-03,   450.000E-03,   340.497E-03
C:/Users/touze/project/Shear_centre/strip/Job-1.odb,loading,Increment      1: Step Time =    1.000,"PART-1-1",          2355,  -20.0000E-03,   400.000E-03,   450.000E-03,NA,NA,"",  -20.0000E-03,   400.000E-03,   450.000E-03,   494.910E-03
C:/Users/touze/project/Shear_centre/strip/Job-1.odb,loading,Increment      1: Step Time =    1.000,"PART-1-1",          2354,  -20.0000E-03,   450.000E-03,   450.000E-03,NA,NA,"",  -20.0000E-03,   450.000E-03,   450.000E-03,   630.192E-03
C:/Users/touze/project/Shear_centre/strip/Job-1.odb,loading,Increment      1: Step Time =    1.000,"PART-1-1",          2353,  -20.0000E-03,      500.E-03,   450.000E-03,NA,NA,"",  -20.0000E-03,      500.E-03,   450.000E-03,   688.601E-03
C:/Users/touze/project/Shear_centre/strip/Job-1.odb,loading,Increment      1: Step Time =    1.000,"PART-1-1",          1092,   20.0000E-03,     -500.E-03,   450.000E-03,NA,NA,"",   20.0000E-03,     -500.E-03,   450.000E-03,   688.601E-03
C:/Users/touze/project/Shear_centre/strip/Job-1.odb,loading,Increment      1: Step Time =    1.000,"PART-1-1",          2351,  -20.0000E-03,  -450.000E-03,      500.E-03,NA,NA,"",  -20.0000E-03,  -450.000E-03,      500.E-03,   612.183E-03
C:/Users/touze/project/Shear_centre/strip/Job-1.odb,loading,Increment      1: Step Time =    1.000,"PART-1-1",          2350,  -20.0000E-03,  -400.000E-03,      500.E-03,NA,NA,"",  -20.0000E-03,  -400.000E-03,      500.E-03,   483.128E-03
C:/Users/touze/project/Shear_centre/strip/Job-1.odb,loading,Increment      1: Step Time =    1.000,"PART-1-1",          2349,  -20.0000E-03,  -350.000E-03,      500.E-03,NA,NA,"",  -20.0000E-03,  -350.000E-03,      500.E-03,   333.036E-03
C:/Users/touze/project/Shear_centre/strip/Job-1.odb,loading,Increment      1: Step Time =    1.000,"PART-1-1",          2348,  -20.0000E-03,  -300.000E-03,      500.E-03,NA,NA,"",  -20.0000E-03,  -300.000E-03,      500.E-03,   188.548E-03
C:/Users/touze/project/Shear_centre/strip/Job-1.odb,loading,Increment      1: Step Time =    1.000,"PART-1-1",          2347,  -20.0000E-03,     -250.E-03,      500.E-03,NA,NA,"",  -20.0000E-03,     -250.E-03,      500.E-03,   121.871E-03
C:/Users/touze/project/Shear_centre/strip/Job-1.odb,loading,Increment      1: Step Time =    1.000,"PART-1-1",          2346,  -20.0000E-03,  -200.000E-03,      500.E-03,NA,NA,"",  -20.0000E-03,  -200.000E-03,      500.E-03,   193.288E-03
C:/Users/touze/project/Shear_centre/strip/Job-1.odb,loading,Increment      1: Step Time =    1.000,"PART-1-1",          2345,  -20.0000E-03,  -150.000E-03,      500.E-03,NA,NA,"",  -20.0000E-03,  -150.000E-03,      500.E-03,   338.975E-03
C:/Users/touze/project/Shear_centre/strip/Job-1.odb,loading,Increment      1: Step Time =    1.000,"PART-1-1",          2344,  -20.0000E-03,  -100.000E-03,      500.E-03,NA,NA,"",  -20.0000E-03,  -100.000E-03,      500.E-03,   488.362E-03
C:/Users/touze/project/Shear_centre/strip/Job-1.odb,loading,Increment      1: Step Time =    1.000,"PART-1-1",          2343,  -20.0000E-03,  -50.0000E-03,      500.E-03,NA,NA,"",  -20.0000E-03,  -50.0000E-03,      500.E-03,   611.604E-03
C:/Users/touze/project/Shear_centre/strip/Job-1.odb,loading,Increment      1: Step Time =    1.000,"PART-1-1",          2342,  -20.0000E-03,            0.,      500.E-03,NA,NA,"",  -20.0000E-03,            0.,      500.E-03,   661.792E-03
C:/Users/touze/project/Shear_centre/strip/Job-1.odb,loading,Increment      1: Step Time =    1.000,"PART-1-1",          2341,  -20.0000E-03,   50.0000E-03,      500.E-03,NA,NA,"",  -20.0000E-03,   50.0000E-03,      500.E-03,   611.604E-03
C:/Users/touze/project/Shear_centre/strip/Job-1.odb,loading,Increment      1: Step Time =    1.000,"PART-1-1",          2340,  -20.0000E-03,   100.000E-03,      500.E-03,NA,NA,"",  -20.0000E-03,   100.000E-03,      500.E-03,   488.362E-03
C:/Users/touze/project/Shear_centre/strip/Job-1.odb,loading,Increment      1: Step Time =    1.000,"PART-1-1",          2339,  -20.0000E-03,   150.000E-03,      500.E-03,NA,NA,"",  -20.0000E-03,   150.000E-03,      500.E-03,   338.975E-03
C:/Users/touze/project/Shear_centre/strip/Job-1.odb,loading,Increment      1: Step Time =    1.000,"PART-1-1",          2338,  -20.0000E-03,   200.000E-03,      500.E-03,NA,NA,"",  -20.0000E-03,   200.000E-03,      500.E-03,   193.288E-03
C:/Users/touze/project/Shear_centre/strip/Job-1.odb,loading,Increment      1: Step Time =    1.000,"PART-1-1",          2337,  -20.0000E-03,      250.E-03,      500.E-03,NA,NA,"",  -20.0000E-03,      250.E-03,      500.E-03,   121.871E-03
C:/Users/touze/project/Shear_centre/strip/Job-1.odb,loading,Increment      1: Step Time =    1.000,"PART-1-1",          2336,  -20.0000E-03,   300.000E-03,      500.E-03,NA,NA,"",  -20.0000E-03,   300.000E-03,      500.E-03,   188.548E-03
C:/Users/touze/project/Shear_centre/strip/Job-1.odb,loading,Increment      1: Step Time =    1.000,"PART-1-1",          2335,  -20.0000E-03,   350.000E-03,      500.E-03,NA,NA,"",  -20.0000E-03,   350.000E-03,      500.E-03,   333.036E-03
C:/Users/touze/project/Shear_centre/strip/Job-1.odb,loading,Increment      1: Step Time =    1.000,"PART-1-1",          2334,  -20.0000E-03,   400.000E-03,      500.E-03,NA,NA,"",  -20.0000E-03,   400.000E-03,      500.E-03,   483.128E-03
C:/Users/touze/project/Shear_centre/strip/Job-1.odb,loading,Increment      1: Step Time =    1.000,"PART-1-1",          2333,  -20.0000E-03,   450.000E-03,      500.E-03,NA,NA,"",  -20.0000E-03,   450.000E-03,      500.E-03,   612.183E-03
C:/Users/touze/project/Shear_centre/strip/Job-1.odb,loading,Increment      1: Step Time =    1.000,"PART-1-1",          2332,  -20.0000E-03,      500.E-03,      500.E-03,NA,NA,"",  -20.0000E-03,      500.E-03,      500.E-03,   666.896E-03
C:/Users/touze/project/Shear_centre/strip/Job-1.odb,loading,Increment      1: Step Time =    1.000,"PART-1-1",          1071,   20.0000E-03,     -500.E-03,      500.E-03,NA,NA,"",   20.0000E-03,     -500.E-03,      500.E-03,   666.896E-03
C:/Users/touze/project/Shear_centre/strip/Job-1.odb,loading,Increment      1: Step Time =    1.000,"PART-1-1",          1051,   20.0000E-03,      500.E-03,      500.E-03,NA,NA,"",   20.0000E-03,      500.E-03,      500.E-03,   666.896E-03
C:/Users/touze/project/Shear_centre/strip/Job-1.odb,loading,Increment      1: Step Time =    1.000,"PART-1-1",          1070,   20.0000E-03,  -450.000E-03,      500.E-03,NA,NA,"",   20.0000E-03,  -450.000E-03,      500.E-03,   612.183E-03
C:/Users/touze/project/Shear_centre/strip/Job-1.odb,loading,Increment      1: Step Time =    1.000,"PART-1-1",          1069,   20.0000E-03,  -400.000E-03,      500.E-03,NA,NA,"",   20.0000E-03,  -400.000E-03,      500.E-03,   483.128E-03
C:/Users/touze/project/Shear_centre/strip/Job-1.odb,loading,Increment      1: Step Time =    1.000,"PART-1-1",          1068,   20.0000E-03,  -350.000E-03,      500.E-03,NA,NA,"",   20.0000E-03,  -350.000E-03,      500.E-03,   333.036E-03
C:/Users/touze/project/Shear_centre/strip/Job-1.odb,loading,Increment      1: Step Time =    1.000,"PART-1-1",          1067,   20.0000E-03,  -300.000E-03,      500.E-03,NA,NA,"",   20.0000E-03,  -300.000E-03,      500.E-03,   188.548E-03
C:/Users/touze/project/Shear_centre/strip/Job-1.odb,loading,Increment      1: Step Time =    1.000,"PART-1-1",          1066,   20.0000E-03,     -250.E-03,      500.E-03,NA,NA,"",   20.0000E-03,     -250.E-03,      500.E-03,   121.871E-03
C:/Users/touze/project/Shear_centre/strip/Job-1.odb,loading,Increment      1: Step Time =    1.000,"PART-1-1",          1065,   20.0000E-03,  -200.000E-03,      500.E-03,NA,NA,"",   20.0000E-03,  -200.000E-03,      500.E-03,   193.288E-03
C:/Users/touze/project/Shear_centre/strip/Job-1.odb,loading,Increment      1: Step Time =    1.000,"PART-1-1",          1064,   20.0000E-03,  -150.000E-03,      500.E-03,NA,NA,"",   20.0000E-03,  -150.000E-03,      500.E-03,   338.975E-03
C:/Users/touze/project/Shear_centre/strip/Job-1.odb,loading,Increment      1: Step Time =    1.000,"PART-1-1",          1063,   20.0000E-03,  -100.000E-03,      500.E-03,NA,NA,"",   20.0000E-03,  -100.000E-03,      500.E-03,   488.362E-03
C:/Users/touze/project/Shear_centre/strip/Job-1.odb,loading,Increment      1: Step Time =    1.000,"PART-1-1",          1062,   20.0000E-03,  -50.0000E-03,      500.E-03,NA,NA,"",   20.0000E-03,  -50.0000E-03,      500.E-03,   611.604E-03
C:/Users/touze/project/Shear_centre/strip/Job-1.odb,loading,Increment      1: Step Time =    1.000,"PART-1-1",          1061,   20.0000E-03,            0.,      500.E-03,NA,NA,"",   20.0000E-03,            0.,      500.E-03,   661.792E-03
C:/Users/touze/project/Shear_centre/strip/Job-1.odb,loading,Increment      1: Step Time =    1.000,"PART-1-1",          1060,   20.0000E-03,   50.0000E-03,      500.E-03,NA,NA,"",   20.0000E-03,   50.0000E-03,      500.E-03,   611.604E-03
C:/Users/touze/project/Shear_centre/strip/Job-1.odb,loading,Increment      1: Step Time =    1.000,"PART-1-1",          1059,   20.0000E-03,   100.000E-03,      500.E-03,NA,NA,"",   20.0000E-03,   100.000E-03,      500.E-03,   488.362E-03
C:/Users/touze/project/Shear_centre/strip/Job-1.odb,loading,Increment      1: Step Time =    1.000,"PART-1-1",          1058,   20.0000E-03,   150.000E-03,      500.E-03,NA,NA,"",   20.0000E-03,   150.000E-03,      500.E-03,   338.975E-03
C:/Users/touze/project/Shear_centre/strip/Job-1.odb,loading,Increment      1: Step Time =    1.000,"PART-1-1",          1057,   20.0000E-03,   200.000E-03,      500.E-03,NA,NA,"",   20.0000E-03,   200.000E-03,      500.E-03,   193.288E-03
C:/Users/touze/project/Shear_centre/strip/Job-1.odb,loading,Increment      1: Step Time =    1.000,"PART-1-1",          1056,   20.0000E-03,      250.E-03,      500.E-03,NA,NA,"",   20.0000E-03,      250.E-03,      500.E-03,   121.871E-03
C:/Users/touze/project/Shear_centre/strip/Job-1.odb,loading,Increment      1: Step Time =    1.000,"PART-1-1",          1055,   20.0000E-03,   300.000E-03,      500.E-03,NA,NA,"",   20.0000E-03,   300.000E-03,      500.E-03,   188.548E-03
C:/Users/touze/project/Shear_centre/strip/Job-1.odb,loading,Increment      1: Step Time =    1.000,"PART-1-1",          1054,   20.0000E-03,   350.000E-03,      500.E-03,NA,NA,"",   20.0000E-03,   350.000E-03,      500.E-03,   333.036E-03
C:/Users/touze/project/Shear_centre/strip/Job-1.odb,loading,Increment      1: Step Time =    1.000,"PART-1-1",          1053,   20.0000E-03,   400.000E-03,      500.E-03,NA,NA,"",   20.0000E-03,   400.000E-03,      500.E-03,   483.128E-03
C:/Users/touze/project/Shear_centre/strip/Job-1.odb,loading,Increment      1: Step Time =    1.000,"PART-1-1",          1052,   20.0000E-03,   450.000E-03,      500.E-03,NA,NA,"",   20.0000E-03,   450.000E-03,      500.E-03,   612.183E-03
C:/Users/touze/project/Shear_centre/strip/Job-1.odb,loading,Increment      1: Step Time =    1.000,"PART-1-1",          2352,  -20.0000E-03,     -500.E-03,      500.E-03,NA,NA,"",  -20.0000E-03,     -500.E-03,      500.E-03,   666.896E-03
C:/Users/touze/project/Shear_centre/strip/Job-1.odb,loading,Increment      1: Step Time =    1.000,"PART-1-1",          1050,   20.0000E-03,     -500.E-03,   550.000E-03,NA,NA,"",   20.0000E-03,     -500.E-03,   550.000E-03,   645.707E-03
C:/Users/touze/project/Shear_centre/strip/Job-1.odb,loading,Increment      1: Step Time =    1.000,"PART-1-1",          1049,   20.0000E-03,  -450.000E-03,   550.000E-03,NA,NA,"",   20.0000E-03,  -450.000E-03,   550.000E-03,   594.202E-03
C:/Users/touze/project/Shear_centre/strip/Job-1.odb,loading,Increment      1: Step Time =    1.000,"PART-1-1",          1048,   20.0000E-03,  -400.000E-03,   550.000E-03,NA,NA,"",   20.0000E-03,  -400.000E-03,   550.000E-03,   471.004E-03
C:/Users/touze/project/Shear_centre/strip/Job-1.odb,loading,Increment      1: Step Time =    1.000,"PART-1-1",          1047,   20.0000E-03,  -350.000E-03,   550.000E-03,NA,NA,"",   20.0000E-03,  -350.000E-03,   550.000E-03,   325.444E-03
C:/Users/touze/project/Shear_centre/strip/Job-1.odb,loading,Increment      1: Step Time =    1.000,"PART-1-1",          1046,   20.0000E-03,  -300.000E-03,   550.000E-03,NA,NA,"",   20.0000E-03,  -300.000E-03,   550.000E-03,   184.612E-03
C:/Users/touze/project/Shear_centre/strip/Job-1.odb,loading,Increment      1: Step Time =    1.000,"PART-1-1",          1045,   20.0000E-03,     -250.E-03,   550.000E-03,NA,NA,"",   20.0000E-03,     -250.E-03,   550.000E-03,   119.617E-03
C:/Users/touze/project/Shear_centre/strip/Job-1.odb,loading,Increment      1: Step Time =    1.000,"PART-1-1",          1044,   20.0000E-03,  -200.000E-03,   550.000E-03,NA,NA,"",   20.0000E-03,  -200.000E-03,   550.000E-03,   189.218E-03
C:/Users/touze/project/Shear_centre/strip/Job-1.odb,loading,Increment      1: Step Time =    1.000,"PART-1-1",          1043,   20.0000E-03,  -150.000E-03,   550.000E-03,NA,NA,"",   20.0000E-03,  -150.000E-03,   550.000E-03,   331.228E-03
C:/Users/touze/project/Shear_centre/strip/Job-1.odb,loading,Increment      1: Step Time =    1.000,"PART-1-1",          1042,   20.0000E-03,  -100.000E-03,   550.000E-03,NA,NA,"",   20.0000E-03,  -100.000E-03,   550.000E-03,   475.946E-03
C:/Users/touze/project/Shear_centre/strip/Job-1.odb,loading,Increment      1: Step Time =    1.000,"PART-1-1",          1041,   20.0000E-03,  -50.0000E-03,   550.000E-03,NA,NA,"",   20.0000E-03,  -50.0000E-03,   550.000E-03,   593.740E-03
C:/Users/touze/project/Shear_centre/strip/Job-1.odb,loading,Increment      1: Step Time =    1.000,"PART-1-1",          1031,   20.0000E-03,   450.000E-03,   550.000E-03,NA,NA,"",   20.0000E-03,   450.000E-03,   550.000E-03,   594.202E-03
C:/Users/touze/project/Shear_centre/strip/Job-1.odb,loading,Increment      1: Step Time =    1.000,"PART-1-1",          1040,   20.0000E-03,            0.,   550.000E-03,NA,NA,"",   20.0000E-03,            0.,   550.000E-03,   641.199E-03
C:/Users/touze/project/Shear_centre/strip/Job-1.odb,loading,Increment      1: Step Time =    1.000,"PART-1-1",          1039,   20.0000E-03,   50.0000E-03,   550.000E-03,NA,NA,"",   20.0000E-03,   50.0000E-03,   550.000E-03,   593.740E-03
C:/Users/touze/project/Shear_centre/strip/Job-1.odb,loading,Increment      1: Step Time =    1.000,"PART-1-1",          1038,   20.0000E-03,   100.000E-03,   550.000E-03,NA,NA,"",   20.0000E-03,   100.000E-03,   550.000E-03,   475.946E-03
C:/Users/touze/project/Shear_centre/strip/Job-1.odb,loading,Increment      1: Step Time =    1.000,"PART-1-1",          1037,   20.0000E-03,   150.000E-03,   550.000E-03,NA,NA,"",   20.0000E-03,   150.000E-03,   550.000E-03,   331.228E-03
C:/Users/touze/project/Shear_centre/strip/Job-1.odb,loading,Increment      1: Step Time =    1.000,"PART-1-1",          1036,   20.0000E-03,   200.000E-03,   550.000E-03,NA,NA,"",   20.0000E-03,   200.000E-03,   550.000E-03,   189.218E-03
C:/Users/touze/project/Shear_centre/strip/Job-1.odb,loading,Increment      1: Step Time =    1.000,"PART-1-1",          1035,   20.0000E-03,      250.E-03,   550.000E-03,NA,NA,"",   20.0000E-03,      250.E-03,   550.000E-03,   119.617E-03
C:/Users/touze/project/Shear_centre/strip/Job-1.odb,loading,Increment      1: Step Time =    1.000,"PART-1-1",          1034,   20.0000E-03,   300.000E-03,   550.000E-03,NA,NA,"",   20.0000E-03,   300.000E-03,   550.000E-03,   184.612E-03
C:/Users/touze/project/Shear_centre/strip/Job-1.odb,loading,Increment      1: Step Time =    1.000,"PART-1-1",          1033,   20.0000E-03,   350.000E-03,   550.000E-03,NA,NA,"",   20.0000E-03,   350.000E-03,   550.000E-03,   325.444E-03
C:/Users/touze/project/Shear_centre/strip/Job-1.odb,loading,Increment      1: Step Time =    1.000,"PART-1-1",          1032,   20.0000E-03,   400.000E-03,   550.000E-03,NA,NA,"",   20.0000E-03,   400.000E-03,   550.000E-03,   471.004E-03
C:/Users/touze/project/Shear_centre/strip/Job-1.odb,loading,Increment      1: Step Time =    1.000,"PART-1-1",          2331,  -20.0000E-03,     -500.E-03,   550.000E-03,NA,NA,"",  -20.0000E-03,     -500.E-03,   550.000E-03,   645.707E-03
C:/Users/touze/project/Shear_centre/strip/Job-1.odb,loading,Increment      1: Step Time =    1.000,"PART-1-1",          2330,  -20.0000E-03,  -450.000E-03,   550.000E-03,NA,NA,"",  -20.0000E-03,  -450.000E-03,   550.000E-03,   594.202E-03
C:/Users/touze/project/Shear_centre/strip/Job-1.odb,loading,Increment      1: Step Time =    1.000,"PART-1-1",          2329,  -20.0000E-03,  -400.000E-03,   550.000E-03,NA,NA,"",  -20.0000E-03,  -400.000E-03,   550.000E-03,   471.004E-03
C:/Users/touze/project/Shear_centre/strip/Job-1.odb,loading,Increment      1: Step Time =    1.000,"PART-1-1",          2328,  -20.0000E-03,  -350.000E-03,   550.000E-03,NA,NA,"",  -20.0000E-03,  -350.000E-03,   550.000E-03,   325.444E-03
C:/Users/touze/project/Shear_centre/strip/Job-1.odb,loading,Increment      1: Step Time =    1.000,"PART-1-1",          2327,  -20.0000E-03,  -300.000E-03,   550.000E-03,NA,NA,"",  -20.0000E-03,  -300.000E-03,   550.000E-03,   184.612E-03
C:/Users/touze/project/Shear_centre/strip/Job-1.odb,loading,Increment      1: Step Time =    1.000,"PART-1-1",          2326,  -20.0000E-03,     -250.E-03,   550.000E-03,NA,NA,"",  -20.0000E-03,     -250.E-03,   550.000E-03,   119.617E-03
C:/Users/touze/project/Shear_centre/strip/Job-1.odb,loading,Increment      1: Step Time =    1.000,"PART-1-1",          2325,  -20.0000E-03,  -200.000E-03,   550.000E-03,NA,NA,"",  -20.0000E-03,  -200.000E-03,   550.000E-03,   189.218E-03
C:/Users/touze/project/Shear_centre/strip/Job-1.odb,loading,Increment      1: Step Time =    1.000,"PART-1-1",          2324,  -20.0000E-03,  -150.000E-03,   550.000E-03,NA,NA,"",  -20.0000E-03,  -150.000E-03,   550.000E-03,   331.228E-03
C:/Users/touze/project/Shear_centre/strip/Job-1.odb,loading,Increment      1: Step Time =    1.000,"PART-1-1",          2323,  -20.0000E-03,  -100.000E-03,   550.000E-03,NA,NA,"",  -20.0000E-03,  -100.000E-03,   550.000E-03,   475.946E-03
C:/Users/touze/project/Shear_centre/strip/Job-1.odb,loading,Increment      1: Step Time =    1.000,"PART-1-1",          2322,  -20.0000E-03,  -50.0000E-03,   550.000E-03,NA,NA,"",  -20.0000E-03,  -50.0000E-03,   550.000E-03,   593.740E-03
C:/Users/touze/project/Shear_centre/strip/Job-1.odb,loading,Increment      1: Step Time =    1.000,"PART-1-1",          2321,  -20.0000E-03,            0.,   550.000E-03,NA,NA,"",  -20.0000E-03,            0.,   550.000E-03,   641.199E-03
C:/Users/touze/project/Shear_centre/strip/Job-1.odb,loading,Increment      1: Step Time =    1.000,"PART-1-1",          2320,  -20.0000E-03,   50.0000E-03,   550.000E-03,NA,NA,"",  -20.0000E-03,   50.0000E-03,   550.000E-03,   593.740E-03
C:/Users/touze/project/Shear_centre/strip/Job-1.odb,loading,Increment      1: Step Time =    1.000,"PART-1-1",          2319,  -20.0000E-03,   100.000E-03,   550.000E-03,NA,NA,"",  -20.0000E-03,   100.000E-03,   550.000E-03,   475.946E-03
C:/Users/touze/project/Shear_centre/strip/Job-1.odb,loading,Increment      1: Step Time =    1.000,"PART-1-1",          2318,  -20.0000E-03,   150.000E-03,   550.000E-03,NA,NA,"",  -20.0000E-03,   150.000E-03,   550.000E-03,   331.228E-03
C:/Users/touze/project/Shear_centre/strip/Job-1.odb,loading,Increment      1: Step Time =    1.000,"PART-1-1",          2317,  -20.0000E-03,   200.000E-03,   550.000E-03,NA,NA,"",  -20.0000E-03,   200.000E-03,   550.000E-03,   189.218E-03
C:/Users/touze/project/Shear_centre/strip/Job-1.odb,loading,Increment      1: Step Time =    1.000,"PART-1-1",          2316,  -20.0000E-03,      250.E-03,   550.000E-03,NA,NA,"",  -20.0000E-03,      250.E-03,   550.000E-03,   119.617E-03
C:/Users/touze/project/Shear_centre/strip/Job-1.odb,loading,Increment      1: Step Time =    1.000,"PART-1-1",          2315,  -20.0000E-03,   300.000E-03,   550.000E-03,NA,NA,"",  -20.0000E-03,   300.000E-03,   550.000E-03,   184.612E-03
C:/Users/touze/project/Shear_centre/strip/Job-1.odb,loading,Increment      1: Step Time =    1.000,"PART-1-1",          2314,  -20.0000E-03,   350.000E-03,   550.000E-03,NA,NA,"",  -20.0000E-03,   350.000E-03,   550.000E-03,   325.444E-03
C:/Users/touze/project/Shear_centre/strip/Job-1.odb,loading,Increment      1: Step Time =    1.000,"PART-1-1",          2313,  -20.0000E-03,   400.000E-03,   550.000E-03,NA,NA,"",  -20.0000E-03,   400.000E-03,   550.000E-03,   471.004E-03
C:/Users/touze/project/Shear_centre/strip/Job-1.odb,loading,Increment      1: Step Time =    1.000,"PART-1-1",          2312,  -20.0000E-03,   450.000E-03,   550.000E-03,NA,NA,"",  -20.0000E-03,   450.000E-03,   550.000E-03,   594.202E-03
C:/Users/touze/project/Shear_centre/strip/Job-1.odb,loading,Increment      1: Step Time =    1.000,"PART-1-1",          2311,  -20.0000E-03,      500.E-03,   550.000E-03,NA,NA,"",  -20.0000E-03,      500.E-03,   550.000E-03,   645.707E-03
C:/Users/touze/project/Shear_centre/strip/Job-1.odb,loading,Increment      1: Step Time =    1.000,"PART-1-1",          1030,   20.0000E-03,      500.E-03,   550.000E-03,NA,NA,"",   20.0000E-03,      500.E-03,   550.000E-03,   645.707E-03
C:/Users/touze/project/Shear_centre/strip/Job-1.odb,loading,Increment      1: Step Time =    1.000,"PART-1-1",          2309,  -20.0000E-03,  -450.000E-03,   600.000E-03,NA,NA,"",  -20.0000E-03,  -450.000E-03,   600.000E-03,   576.860E-03
C:/Users/touze/project/Shear_centre/strip/Job-1.odb,loading,Increment      1: Step Time =    1.000,"PART-1-1",          2308,  -20.0000E-03,  -400.000E-03,   600.000E-03,NA,NA,"",  -20.0000E-03,  -400.000E-03,   600.000E-03,   459.187E-03
C:/Users/touze/project/Shear_centre/strip/Job-1.odb,loading,Increment      1: Step Time =    1.000,"PART-1-1",          2307,  -20.0000E-03,  -350.000E-03,   600.000E-03,NA,NA,"",  -20.0000E-03,  -350.000E-03,   600.000E-03,   317.980E-03
C:/Users/touze/project/Shear_centre/strip/Job-1.odb,loading,Increment      1: Step Time =    1.000,"PART-1-1",          2306,  -20.0000E-03,  -300.000E-03,   600.000E-03,NA,NA,"",  -20.0000E-03,  -300.000E-03,   600.000E-03,   180.712E-03
C:/Users/touze/project/Shear_centre/strip/Job-1.odb,loading,Increment      1: Step Time =    1.000,"PART-1-1",          2305,  -20.0000E-03,     -250.E-03,   600.000E-03,NA,NA,"",  -20.0000E-03,     -250.E-03,   600.000E-03,   117.373E-03
C:/Users/touze/project/Shear_centre/strip/Job-1.odb,loading,Increment      1: Step Time =    1.000,"PART-1-1",          2304,  -20.0000E-03,  -200.000E-03,   600.000E-03,NA,NA,"",  -20.0000E-03,  -200.000E-03,   600.000E-03,   185.163E-03
C:/Users/touze/project/Shear_centre/strip/Job-1.odb,loading,Increment      1: Step Time =    1.000,"PART-1-1",          2303,  -20.0000E-03,  -150.000E-03,   600.000E-03,NA,NA,"",  -20.0000E-03,  -150.000E-03,   600.000E-03,   323.466E-03
C:/Users/touze/project/Shear_centre/strip/Job-1.odb,loading,Increment      1: Step Time =    1.000,"PART-1-1",          2302,  -20.0000E-03,  -100.000E-03,   600.000E-03,NA,NA,"",  -20.0000E-03,  -100.000E-03,   600.000E-03,   463.631E-03
C:/Users/touze/project/Shear_centre/strip/Job-1.odb,loading,Increment      1: Step Time =    1.000,"PART-1-1",          2301,  -20.0000E-03,  -50.0000E-03,   600.000E-03,NA,NA,"",  -20.0000E-03,  -50.0000E-03,   600.000E-03,   576.431E-03
C:/Users/touze/project/Shear_centre/strip/Job-1.odb,loading,Increment      1: Step Time =    1.000,"PART-1-1",          2300,  -20.0000E-03,            0.,   600.000E-03,NA,NA,"",  -20.0000E-03,            0.,   600.000E-03,   621.474E-03
C:/Users/touze/project/Shear_centre/strip/Job-1.odb,loading,Increment      1: Step Time =    1.000,"PART-1-1",          2298,  -20.0000E-03,   100.000E-03,   600.000E-03,NA,NA,"",  -20.0000E-03,   100.000E-03,   600.000E-03,   463.631E-03
C:/Users/touze/project/Shear_centre/strip/Job-1.odb,loading,Increment      1: Step Time =    1.000,"PART-1-1",          2297,  -20.0000E-03,   150.000E-03,   600.000E-03,NA,NA,"",  -20.0000E-03,   150.000E-03,   600.000E-03,   323.466E-03
C:/Users/touze/project/Shear_centre/strip/Job-1.odb,loading,Increment      1: Step Time =    1.000,"PART-1-1",          2296,  -20.0000E-03,   200.000E-03,   600.000E-03,NA,NA,"",  -20.0000E-03,   200.000E-03,   600.000E-03,   185.163E-03
C:/Users/touze/project/Shear_centre/strip/Job-1.odb,loading,Increment      1: Step Time =    1.000,"PART-1-1",          2295,  -20.0000E-03,      250.E-03,   600.000E-03,NA,NA,"",  -20.0000E-03,      250.E-03,   600.000E-03,   117.373E-03
C:/Users/touze/project/Shear_centre/strip/Job-1.odb,loading,Increment      1: Step Time =    1.000,"PART-1-1",          2294,  -20.0000E-03,   300.000E-03,   600.000E-03,NA,NA,"",  -20.0000E-03,   300.000E-03,   600.000E-03,   180.712E-03
C:/Users/touze/project/Shear_centre/strip/Job-1.odb,loading,Increment      1: Step Time =    1.000,"PART-1-1",          2293,  -20.0000E-03,   350.000E-03,   600.000E-03,NA,NA,"",  -20.0000E-03,   350.000E-03,   600.000E-03,   317.980E-03
C:/Users/touze/project/Shear_centre/strip/Job-1.odb,loading,Increment      1: Step Time =    1.000,"PART-1-1",          2292,  -20.0000E-03,   400.000E-03,   600.000E-03,NA,NA,"",  -20.0000E-03,   400.000E-03,   600.000E-03,   459.187E-03
C:/Users/touze/project/Shear_centre/strip/Job-1.odb,loading,Increment      1: Step Time =    1.000,"PART-1-1",          2291,  -20.0000E-03,   450.000E-03,   600.000E-03,NA,NA,"",  -20.0000E-03,   450.000E-03,   600.000E-03,   576.860E-03
C:/Users/touze/project/Shear_centre/strip/Job-1.odb,loading,Increment      1: Step Time =    1.000,"PART-1-1",          2290,  -20.0000E-03,      500.E-03,   600.000E-03,NA,NA,"",  -20.0000E-03,      500.E-03,   600.000E-03,   625.361E-03
C:/Users/touze/project/Shear_centre/strip/Job-1.odb,loading,Increment      1: Step Time =    1.000,"PART-1-1",          2299,  -20.0000E-03,   50.0000E-03,   600.000E-03,NA,NA,"",  -20.0000E-03,   50.0000E-03,   600.000E-03,   576.431E-03
C:/Users/touze/project/Shear_centre/strip/Job-1.odb,loading,Increment      1: Step Time =    1.000,"PART-1-1",          2310,  -20.0000E-03,     -500.E-03,   600.000E-03,NA,NA,"",  -20.0000E-03,     -500.E-03,   600.000E-03,   625.361E-03
C:/Users/touze/project/Shear_centre/strip/Job-1.odb,loading,Increment      1: Step Time =    1.000,"PART-1-1",          1029,   20.0000E-03,     -500.E-03,   600.000E-03,NA,NA,"",   20.0000E-03,     -500.E-03,   600.000E-03,   625.361E-03
C:/Users/touze/project/Shear_centre/strip/Job-1.odb,loading,Increment      1: Step Time =    1.000,"PART-1-1",          1028,   20.0000E-03,  -450.000E-03,   600.000E-03,NA,NA,"",   20.0000E-03,  -450.000E-03,   600.000E-03,   576.860E-03
C:/Users/touze/project/Shear_centre/strip/Job-1.odb,loading,Increment      1: Step Time =    1.000,"PART-1-1",          1027,   20.0000E-03,  -400.000E-03,   600.000E-03,NA,NA,"",   20.0000E-03,  -400.000E-03,   600.000E-03,   459.187E-03
C:/Users/touze/project/Shear_centre/strip/Job-1.odb,loading,Increment      1: Step Time =    1.000,"PART-1-1",          1026,   20.0000E-03,  -350.000E-03,   600.000E-03,NA,NA,"",   20.0000E-03,  -350.000E-03,   600.000E-03,   317.980E-03
C:/Users/touze/project/Shear_centre/strip/Job-1.odb,loading,Increment      1: Step Time =    1.000,"PART-1-1",          1025,   20.0000E-03,  -300.000E-03,   600.000E-03,NA,NA,"",   20.0000E-03,  -300.000E-03,   600.000E-03,   180.712E-03
C:/Users/touze/project/Shear_centre/strip/Job-1.odb,loading,Increment      1: Step Time =    1.000,"PART-1-1",          1024,   20.0000E-03,     -250.E-03,   600.000E-03,NA,NA,"",   20.0000E-03,     -250.E-03,   600.000E-03,   117.373E-03
C:/Users/touze/project/Shear_centre/strip/Job-1.odb,loading,Increment      1: Step Time =    1.000,"PART-1-1",          1023,   20.0000E-03,  -200.000E-03,   600.000E-03,NA,NA,"",   20.0000E-03,  -200.000E-03,   600.000E-03,   185.163E-03
C:/Users/touze/project/Shear_centre/strip/Job-1.odb,loading,Increment      1: Step Time =    1.000,"PART-1-1",          1022,   20.0000E-03,  -150.000E-03,   600.000E-03,NA,NA,"",   20.0000E-03,  -150.000E-03,   600.000E-03,   323.466E-03
C:/Users/touze/project/Shear_centre/strip/Job-1.odb,loading,Increment      1: Step Time =    1.000,"PART-1-1",          1021,   20.0000E-03,  -100.000E-03,   600.000E-03,NA,NA,"",   20.0000E-03,  -100.000E-03,   600.000E-03,   463.631E-03
C:/Users/touze/project/Shear_centre/strip/Job-1.odb,loading,Increment      1: Step Time =    1.000,"PART-1-1",          1020,   20.0000E-03,  -50.0000E-03,   600.000E-03,NA,NA,"",   20.0000E-03,  -50.0000E-03,   600.000E-03,   576.431E-03
C:/Users/touze/project/Shear_centre/strip/Job-1.odb,loading,Increment      1: Step Time =    1.000,"PART-1-1",          1019,   20.0000E-03,            0.,   600.000E-03,NA,NA,"",   20.0000E-03,            0.,   600.000E-03,   621.474E-03
C:/Users/touze/project/Shear_centre/strip/Job-1.odb,loading,Increment      1: Step Time =    1.000,"PART-1-1",          1018,   20.0000E-03,   50.0000E-03,   600.000E-03,NA,NA,"",   20.0000E-03,   50.0000E-03,   600.000E-03,   576.431E-03
C:/Users/touze/project/Shear_centre/strip/Job-1.odb,loading,Increment      1: Step Time =    1.000,"PART-1-1",          1017,   20.0000E-03,   100.000E-03,   600.000E-03,NA,NA,"",   20.0000E-03,   100.000E-03,   600.000E-03,   463.631E-03
C:/Users/touze/project/Shear_centre/strip/Job-1.odb,loading,Increment      1: Step Time =    1.000,"PART-1-1",          1016,   20.0000E-03,   150.000E-03,   600.000E-03,NA,NA,"",   20.0000E-03,   150.000E-03,   600.000E-03,   323.466E-03
C:/Users/touze/project/Shear_centre/strip/Job-1.odb,loading,Increment      1: Step Time =    1.000,"PART-1-1",          1015,   20.0000E-03,   200.000E-03,   600.000E-03,NA,NA,"",   20.0000E-03,   200.000E-03,   600.000E-03,   185.163E-03
C:/Users/touze/project/Shear_centre/strip/Job-1.odb,loading,Increment      1: Step Time =    1.000,"PART-1-1",          1014,   20.0000E-03,      250.E-03,   600.000E-03,NA,NA,"",   20.0000E-03,      250.E-03,   600.000E-03,   117.373E-03
C:/Users/touze/project/Shear_centre/strip/Job-1.odb,loading,Increment      1: Step Time =    1.000,"PART-1-1",          1013,   20.0000E-03,   300.000E-03,   600.000E-03,NA,NA,"",   20.0000E-03,   300.000E-03,   600.000E-03,   180.712E-03
C:/Users/touze/project/Shear_centre/strip/Job-1.odb,loading,Increment      1: Step Time =    1.000,"PART-1-1",          1012,   20.0000E-03,   350.000E-03,   600.000E-03,NA,NA,"",   20.0000E-03,   350.000E-03,   600.000E-03,   317.980E-03
C:/Users/touze/project/Shear_centre/strip/Job-1.odb,loading,Increment      1: Step Time =    1.000,"PART-1-1",          1011,   20.0000E-03,   400.000E-03,   600.000E-03,NA,NA,"",   20.0000E-03,   400.000E-03,   600.000E-03,   459.187E-03
C:/Users/touze/project/Shear_centre/strip/Job-1.odb,loading,Increment      1: Step Time =    1.000,"PART-1-1",          1010,   20.0000E-03,   450.000E-03,   600.000E-03,NA,NA,"",   20.0000E-03,   450.000E-03,   600.000E-03,   576.860E-03
C:/Users/touze/project/Shear_centre/strip/Job-1.odb,loading,Increment      1: Step Time =    1.000,"PART-1-1",          1009,   20.0000E-03,      500.E-03,   600.000E-03,NA,NA,"",   20.0000E-03,      500.E-03,   600.000E-03,   625.361E-03
C:/Users/touze/project/Shear_centre/strip/Job-1.odb,loading,Increment      1: Step Time =    1.000,"PART-1-1",          1008,   20.0000E-03,     -500.E-03,   650.000E-03,NA,NA,"",   20.0000E-03,     -500.E-03,   650.000E-03,   605.510E-03
C:/Users/touze/project/Shear_centre/strip/Job-1.odb,loading,Increment      1: Step Time =    1.000,"PART-1-1",          2269,  -20.0000E-03,      500.E-03,   650.000E-03,NA,NA,"",  -20.0000E-03,      500.E-03,   650.000E-03,   605.510E-03
C:/Users/touze/project/Shear_centre/strip/Job-1.odb,loading,Increment      1: Step Time =    1.000,"PART-1-1",          2270,  -20.0000E-03,   450.000E-03,   650.000E-03,NA,NA,"",  -20.0000E-03,   450.000E-03,   650.000E-03,   559.686E-03
C:/Users/touze/project/Shear_centre/strip/Job-1.odb,loading,Increment      1: Step Time =    1.000,"PART-1-1",          2271,  -20.0000E-03,   400.000E-03,   650.000E-03,NA,NA,"",  -20.0000E-03,   400.000E-03,   650.000E-03,   447.256E-03
C:/Users/touze/project/Shear_centre/strip/Job-1.odb,loading,Increment      1: Step Time =    1.000,"PART-1-1",          2272,  -20.0000E-03,   350.000E-03,   650.000E-03,NA,NA,"",  -20.0000E-03,   350.000E-03,   650.000E-03,   310.509E-03
C:/Users/touze/project/Shear_centre/strip/Job-1.odb,loading,Increment      1: Step Time =    1.000,"PART-1-1",          2273,  -20.0000E-03,   300.000E-03,   650.000E-03,NA,NA,"",  -20.0000E-03,   300.000E-03,   650.000E-03,   176.861E-03
C:/Users/touze/project/Shear_centre/strip/Job-1.odb,loading,Increment      1: Step Time =    1.000,"PART-1-1",          2274,  -20.0000E-03,      250.E-03,   650.000E-03,NA,NA,"",  -20.0000E-03,      250.E-03,   650.000E-03,   115.158E-03
C:/Users/touze/project/Shear_centre/strip/Job-1.odb,loading,Increment      1: Step Time =    1.000,"PART-1-1",          2275,  -20.0000E-03,   200.000E-03,   650.000E-03,NA,NA,"",  -20.0000E-03,   200.000E-03,   650.000E-03,   181.152E-03
C:/Users/touze/project/Shear_centre/strip/Job-1.odb,loading,Increment      1: Step Time =    1.000,"PART-1-1",          2276,  -20.0000E-03,   150.000E-03,   650.000E-03,NA,NA,"",  -20.0000E-03,   150.000E-03,   650.000E-03,   315.783E-03
C:/Users/touze/project/Shear_centre/strip/Job-1.odb,loading,Increment      1: Step Time =    1.000,"PART-1-1",          2277,  -20.0000E-03,   100.000E-03,   650.000E-03,NA,NA,"",  -20.0000E-03,   100.000E-03,   650.000E-03,   451.444E-03
C:/Users/touze/project/Shear_centre/strip/Job-1.odb,loading,Increment      1: Step Time =    1.000,"PART-1-1",          2278,  -20.0000E-03,   50.0000E-03,   650.000E-03,NA,NA,"",  -20.0000E-03,   50.0000E-03,   650.000E-03,   559.382E-03
C:/Users/touze/project/Shear_centre/strip/Job-1.odb,loading,Increment      1: Step Time =    1.000,"PART-1-1",          2279,  -20.0000E-03,            0.,   650.000E-03,NA,NA,"",  -20.0000E-03,            0.,   650.000E-03,   602.099E-03
C:/Users/touze/project/Shear_centre/strip/Job-1.odb,loading,Increment      1: Step Time =    1.000,"PART-1-1",          2280,  -20.0000E-03,  -50.0000E-03,   650.000E-03,NA,NA,"",  -20.0000E-03,  -50.0000E-03,   650.000E-03,   559.382E-03
C:/Users/touze/project/Shear_centre/strip/Job-1.odb,loading,Increment      1: Step Time =    1.000,"PART-1-1",          2281,  -20.0000E-03,  -100.000E-03,   650.000E-03,NA,NA,"",  -20.0000E-03,  -100.000E-03,   650.000E-03,   451.444E-03
C:/Users/touze/project/Shear_centre/strip/Job-1.odb,loading,Increment      1: Step Time =    1.000,"PART-1-1",          2282,  -20.0000E-03,  -150.000E-03,   650.000E-03,NA,NA,"",  -20.0000E-03,  -150.000E-03,   650.000E-03,   315.783E-03
C:/Users/touze/project/Shear_centre/strip/Job-1.odb,loading,Increment      1: Step Time =    1.000,"PART-1-1",          2283,  -20.0000E-03,  -200.000E-03,   650.000E-03,NA,NA,"",  -20.0000E-03,  -200.000E-03,   650.000E-03,   181.152E-03
C:/Users/touze/project/Shear_centre/strip/Job-1.odb,loading,Increment      1: Step Time =    1.000,"PART-1-1",          2284,  -20.0000E-03,     -250.E-03,   650.000E-03,NA,NA,"",  -20.0000E-03,     -250.E-03,   650.000E-03,   115.158E-03
C:/Users/touze/project/Shear_centre/strip/Job-1.odb,loading,Increment      1: Step Time =    1.000,"PART-1-1",          2285,  -20.0000E-03,  -300.000E-03,   650.000E-03,NA,NA,"",  -20.0000E-03,  -300.000E-03,   650.000E-03,   176.861E-03
C:/Users/touze/project/Shear_centre/strip/Job-1.odb,loading,Increment      1: Step Time =    1.000,"PART-1-1",          2286,  -20.0000E-03,  -350.000E-03,   650.000E-03,NA,NA,"",  -20.0000E-03,  -350.000E-03,   650.000E-03,   310.509E-03
C:/Users/touze/project/Shear_centre/strip/Job-1.odb,loading,Increment      1: Step Time =    1.000,"PART-1-1",          2287,  -20.0000E-03,  -400.000E-03,   650.000E-03,NA,NA,"",  -20.0000E-03,  -400.000E-03,   650.000E-03,   447.256E-03
C:/Users/touze/project/Shear_centre/strip/Job-1.odb,loading,Increment      1: Step Time =    1.000,"PART-1-1",          2288,  -20.0000E-03,  -450.000E-03,   650.000E-03,NA,NA,"",  -20.0000E-03,  -450.000E-03,   650.000E-03,   559.686E-03
C:/Users/touze/project/Shear_centre/strip/Job-1.odb,loading,Increment      1: Step Time =    1.000,"PART-1-1",          2289,  -20.0000E-03,     -500.E-03,   650.000E-03,NA,NA,"",  -20.0000E-03,     -500.E-03,   650.000E-03,   605.510E-03
C:/Users/touze/project/Shear_centre/strip/Job-1.odb,loading,Increment      1: Step Time =    1.000,"PART-1-1",          1006,   20.0000E-03,  -400.000E-03,   650.000E-03,NA,NA,"",   20.0000E-03,  -400.000E-03,   650.000E-03,   447.256E-03
C:/Users/touze/project/Shear_centre/strip/Job-1.odb,loading,Increment      1: Step Time =    1.000,"PART-1-1",          1005,   20.0000E-03,  -350.000E-03,   650.000E-03,NA,NA,"",   20.0000E-03,  -350.000E-03,   650.000E-03,   310.509E-03
C:/Users/touze/project/Shear_centre/strip/Job-1.odb,loading,Increment      1: Step Time =    1.000,"PART-1-1",          1004,   20.0000E-03,  -300.000E-03,   650.000E-03,NA,NA,"",   20.0000E-03,  -300.000E-03,   650.000E-03,   176.861E-03
C:/Users/touze/project/Shear_centre/strip/Job-1.odb,loading,Increment      1: Step Time =    1.000,"PART-1-1",          1003,   20.0000E-03,     -250.E-03,   650.000E-03,NA,NA,"",   20.0000E-03,     -250.E-03,   650.000E-03,   115.158E-03
C:/Users/touze/project/Shear_centre/strip/Job-1.odb,loading,Increment      1: Step Time =    1.000,"PART-1-1",          1002,   20.0000E-03,  -200.000E-03,   650.000E-03,NA,NA,"",   20.0000E-03,  -200.000E-03,   650.000E-03,   181.152E-03
C:/Users/touze/project/Shear_centre/strip/Job-1.odb,loading,Increment      1: Step Time =    1.000,"PART-1-1",          1001,   20.0000E-03,  -150.000E-03,   650.000E-03,NA,NA,"",   20.0000E-03,  -150.000E-03,   650.000E-03,   315.783E-03
C:/Users/touze/project/Shear_centre/strip/Job-1.odb,loading,Increment      1: Step Time =    1.000,"PART-1-1",          1000,   20.0000E-03,  -100.000E-03,   650.000E-03,NA,NA,"",   20.0000E-03,  -100.000E-03,   650.000E-03,   451.444E-03
C:/Users/touze/project/Shear_centre/strip/Job-1.odb,loading,Increment      1: Step Time =    1.000,"PART-1-1",           999,   20.0000E-03,  -50.0000E-03,   650.000E-03,NA,NA,"",   20.0000E-03,  -50.0000E-03,   650.000E-03,   559.382E-03
C:/Users/touze/project/Shear_centre/strip/Job-1.odb,loading,Increment      1: Step Time =    1.000,"PART-1-1",           998,   20.0000E-03,            0.,   650.000E-03,NA,NA,"",   20.0000E-03,            0.,   650.000E-03,   602.099E-03
C:/Users/touze/project/Shear_centre/strip/Job-1.odb,loading,Increment      1: Step Time =    1.000,"PART-1-1",           997,   20.0000E-03,   50.0000E-03,   650.000E-03,NA,NA,"",   20.0000E-03,   50.0000E-03,   650.000E-03,   559.382E-03
C:/Users/touze/project/Shear_centre/strip/Job-1.odb,loading,Increment      1: Step Time =    1.000,"PART-1-1",           996,   20.0000E-03,   100.000E-03,   650.000E-03,NA,NA,"",   20.0000E-03,   100.000E-03,   650.000E-03,   451.444E-03
C:/Users/touze/project/Shear_centre/strip/Job-1.odb,loading,Increment      1: Step Time =    1.000,"PART-1-1",           995,   20.0000E-03,   150.000E-03,   650.000E-03,NA,NA,"",   20.0000E-03,   150.000E-03,   650.000E-03,   315.783E-03
C:/Users/touze/project/Shear_centre/strip/Job-1.odb,loading,Increment      1: Step Time =    1.000,"PART-1-1",           994,   20.0000E-03,   200.000E-03,   650.000E-03,NA,NA,"",   20.0000E-03,   200.000E-03,   650.000E-03,   181.152E-03
C:/Users/touze/project/Shear_centre/strip/Job-1.odb,loading,Increment      1: Step Time =    1.000,"PART-1-1",           993,   20.0000E-03,      250.E-03,   650.000E-03,NA,NA,"",   20.0000E-03,      250.E-03,   650.000E-03,   115.158E-03
C:/Users/touze/project/Shear_centre/strip/Job-1.odb,loading,Increment      1: Step Time =    1.000,"PART-1-1",           992,   20.0000E-03,   300.000E-03,   650.000E-03,NA,NA,"",   20.0000E-03,   300.000E-03,   650.000E-03,   176.861E-03
C:/Users/touze/project/Shear_centre/strip/Job-1.odb,loading,Increment      1: Step Time =    1.000,"PART-1-1",           991,   20.0000E-03,   350.000E-03,   650.000E-03,NA,NA,"",   20.0000E-03,   350.000E-03,   650.000E-03,   310.509E-03
C:/Users/touze/project/Shear_centre/strip/Job-1.odb,loading,Increment      1: Step Time =    1.000,"PART-1-1",           990,   20.0000E-03,   400.000E-03,   650.000E-03,NA,NA,"",   20.0000E-03,   400.000E-03,   650.000E-03,   447.256E-03
C:/Users/touze/project/Shear_centre/strip/Job-1.odb,loading,Increment      1: Step Time =    1.000,"PART-1-1",           989,   20.0000E-03,   450.000E-03,   650.000E-03,NA,NA,"",   20.0000E-03,   450.000E-03,   650.000E-03,   559.686E-03
C:/Users/touze/project/Shear_centre/strip/Job-1.odb,loading,Increment      1: Step Time =    1.000,"PART-1-1",           988,   20.0000E-03,      500.E-03,   650.000E-03,NA,NA,"",   20.0000E-03,      500.E-03,   650.000E-03,   605.510E-03
C:/Users/touze/project/Shear_centre/strip/Job-1.odb,loading,Increment      1: Step Time =    1.000,"PART-1-1",          1007,   20.0000E-03,  -450.000E-03,   650.000E-03,NA,NA,"",   20.0000E-03,  -450.000E-03,   650.000E-03,   559.686E-03
C:/Users/touze/project/Shear_centre/strip/Job-1.odb,loading,Increment      1: Step Time =    1.000,"PART-1-1",           968,   20.0000E-03,   450.000E-03,   700.000E-03,NA,NA,"",   20.0000E-03,   450.000E-03,   700.000E-03,   543.026E-03
C:/Users/touze/project/Shear_centre/strip/Job-1.odb,loading,Increment      1: Step Time =    1.000,"PART-1-1",           969,   20.0000E-03,   400.000E-03,   700.000E-03,NA,NA,"",   20.0000E-03,   400.000E-03,   700.000E-03,   435.539E-03
C:/Users/touze/project/Shear_centre/strip/Job-1.odb,loading,Increment      1: Step Time =    1.000,"PART-1-1",           970,   20.0000E-03,   350.000E-03,   700.000E-03,NA,NA,"",   20.0000E-03,   350.000E-03,   700.000E-03,   303.092E-03
C:/Users/touze/project/Shear_centre/strip/Job-1.odb,loading,Increment      1: Step Time =    1.000,"PART-1-1",           971,   20.0000E-03,   300.000E-03,   700.000E-03,NA,NA,"",   20.0000E-03,   300.000E-03,   700.000E-03,   173.021E-03
C:/Users/touze/project/Shear_centre/strip/Job-1.odb,loading,Increment      1: Step Time =    1.000,"PART-1-1",           972,   20.0000E-03,      250.E-03,   700.000E-03,NA,NA,"",   20.0000E-03,      250.E-03,   700.000E-03,   112.959E-03
C:/Users/touze/project/Shear_centre/strip/Job-1.odb,loading,Increment      1: Step Time =    1.000,"PART-1-1",           973,   20.0000E-03,   200.000E-03,   700.000E-03,NA,NA,"",   20.0000E-03,   200.000E-03,   700.000E-03,   177.167E-03
C:/Users/touze/project/Shear_centre/strip/Job-1.odb,loading,Increment      1: Step Time =    1.000,"PART-1-1",           974,   20.0000E-03,   150.000E-03,   700.000E-03,NA,NA,"",   20.0000E-03,   150.000E-03,   700.000E-03,   308.104E-03
C:/Users/touze/project/Shear_centre/strip/Job-1.odb,loading,Increment      1: Step Time =    1.000,"PART-1-1",           975,   20.0000E-03,   100.000E-03,   700.000E-03,NA,NA,"",   20.0000E-03,   100.000E-03,   700.000E-03,   439.359E-03
C:/Users/touze/project/Shear_centre/strip/Job-1.odb,loading,Increment      1: Step Time =    1.000,"PART-1-1",           976,   20.0000E-03,   50.0000E-03,   700.000E-03,NA,NA,"",   20.0000E-03,   50.0000E-03,   700.000E-03,   542.778E-03
C:/Users/touze/project/Shear_centre/strip/Job-1.odb,loading,Increment      1: Step Time =    1.000,"PART-1-1",           977,   20.0000E-03,            0.,   700.000E-03,NA,NA,"",   20.0000E-03,            0.,   700.000E-03,   583.405E-03
C:/Users/touze/project/Shear_centre/strip/Job-1.odb,loading,Increment      1: Step Time =    1.000,"PART-1-1",           978,   20.0000E-03,  -50.0000E-03,   700.000E-03,NA,NA,"",   20.0000E-03,  -50.0000E-03,   700.000E-03,   542.778E-03
C:/Users/touze/project/Shear_centre/strip/Job-1.odb,loading,Increment      1: Step Time =    1.000,"PART-1-1",           979,   20.0000E-03,  -100.000E-03,   700.000E-03,NA,NA,"",   20.0000E-03,  -100.000E-03,   700.000E-03,   439.359E-03
C:/Users/touze/project/Shear_centre/strip/Job-1.odb,loading,Increment      1: Step Time =    1.000,"PART-1-1",           980,   20.0000E-03,  -150.000E-03,   700.000E-03,NA,NA,"",   20.0000E-03,  -150.000E-03,   700.000E-03,   308.104E-03
C:/Users/touze/project/Shear_centre/strip/Job-1.odb,loading,Increment      1: Step Time =    1.000,"PART-1-1",           981,   20.0000E-03,  -200.000E-03,   700.000E-03,NA,NA,"",   20.0000E-03,  -200.000E-03,   700.000E-03,   177.167E-03
C:/Users/touze/project/Shear_centre/strip/Job-1.odb,loading,Increment      1: Step Time =    1.000,"PART-1-1",           982,   20.0000E-03,     -250.E-03,   700.000E-03,NA,NA,"",   20.0000E-03,     -250.E-03,   700.000E-03,   112.959E-03
C:/Users/touze/project/Shear_centre/strip/Job-1.odb,loading,Increment      1: Step Time =    1.000,"PART-1-1",           983,   20.0000E-03,  -300.000E-03,   700.000E-03,NA,NA,"",   20.0000E-03,  -300.000E-03,   700.000E-03,   173.021E-03
C:/Users/touze/project/Shear_centre/strip/Job-1.odb,loading,Increment      1: Step Time =    1.000,"PART-1-1",           984,   20.0000E-03,  -350.000E-03,   700.000E-03,NA,NA,"",   20.0000E-03,  -350.000E-03,   700.000E-03,   303.092E-03
C:/Users/touze/project/Shear_centre/strip/Job-1.odb,loading,Increment      1: Step Time =    1.000,"PART-1-1",           985,   20.0000E-03,  -400.000E-03,   700.000E-03,NA,NA,"",   20.0000E-03,  -400.000E-03,   700.000E-03,   435.539E-03
C:/Users/touze/project/Shear_centre/strip/Job-1.odb,loading,Increment      1: Step Time =    1.000,"PART-1-1",           986,   20.0000E-03,  -450.000E-03,   700.000E-03,NA,NA,"",   20.0000E-03,  -450.000E-03,   700.000E-03,   543.026E-03
C:/Users/touze/project/Shear_centre/strip/Job-1.odb,loading,Increment      1: Step Time =    1.000,"PART-1-1",           987,   20.0000E-03,     -500.E-03,   700.000E-03,NA,NA,"",   20.0000E-03,     -500.E-03,   700.000E-03,   586.341E-03
C:/Users/touze/project/Shear_centre/strip/Job-1.odb,loading,Increment      1: Step Time =    1.000,"PART-1-1",           967,   20.0000E-03,      500.E-03,   700.000E-03,NA,NA,"",   20.0000E-03,      500.E-03,   700.000E-03,   586.341E-03
C:/Users/touze/project/Shear_centre/strip/Job-1.odb,loading,Increment      1: Step Time =    1.000,"PART-1-1",          2249,  -20.0000E-03,   450.000E-03,   700.000E-03,NA,NA,"",  -20.0000E-03,   450.000E-03,   700.000E-03,   543.026E-03
C:/Users/touze/project/Shear_centre/strip/Job-1.odb,loading,Increment      1: Step Time =    1.000,"PART-1-1",          2250,  -20.0000E-03,   400.000E-03,   700.000E-03,NA,NA,"",  -20.0000E-03,   400.000E-03,   700.000E-03,   435.539E-03
C:/Users/touze/project/Shear_centre/strip/Job-1.odb,loading,Increment      1: Step Time =    1.000,"PART-1-1",          2251,  -20.0000E-03,   350.000E-03,   700.000E-03,NA,NA,"",  -20.0000E-03,   350.000E-03,   700.000E-03,   303.092E-03
C:/Users/touze/project/Shear_centre/strip/Job-1.odb,loading,Increment      1: Step Time =    1.000,"PART-1-1",          2252,  -20.0000E-03,   300.000E-03,   700.000E-03,NA,NA,"",  -20.0000E-03,   300.000E-03,   700.000E-03,   173.021E-03
C:/Users/touze/project/Shear_centre/strip/Job-1.odb,loading,Increment      1: Step Time =    1.000,"PART-1-1",          2253,  -20.0000E-03,      250.E-03,   700.000E-03,NA,NA,"",  -20.0000E-03,      250.E-03,   700.000E-03,   112.959E-03
C:/Users/touze/project/Shear_centre/strip/Job-1.odb,loading,Increment      1: Step Time =    1.000,"PART-1-1",          2254,  -20.0000E-03,   200.000E-03,   700.000E-03,NA,NA,"",  -20.0000E-03,   200.000E-03,   700.000E-03,   177.167E-03
C:/Users/touze/project/Shear_centre/strip/Job-1.odb,loading,Increment      1: Step Time =    1.000,"PART-1-1",          2255,  -20.0000E-03,   150.000E-03,   700.000E-03,NA,NA,"",  -20.0000E-03,   150.000E-03,   700.000E-03,   308.104E-03
C:/Users/touze/project/Shear_centre/strip/Job-1.odb,loading,Increment      1: Step Time =    1.000,"PART-1-1",          2256,  -20.0000E-03,   100.000E-03,   700.000E-03,NA,NA,"",  -20.0000E-03,   100.000E-03,   700.000E-03,   439.359E-03
C:/Users/touze/project/Shear_centre/strip/Job-1.odb,loading,Increment      1: Step Time =    1.000,"PART-1-1",          2257,  -20.0000E-03,   50.0000E-03,   700.000E-03,NA,NA,"",  -20.0000E-03,   50.0000E-03,   700.000E-03,   542.778E-03
C:/Users/touze/project/Shear_centre/strip/Job-1.odb,loading,Increment      1: Step Time =    1.000,"PART-1-1",          2258,  -20.0000E-03,            0.,   700.000E-03,NA,NA,"",  -20.0000E-03,            0.,   700.000E-03,   583.405E-03
C:/Users/touze/project/Shear_centre/strip/Job-1.odb,loading,Increment      1: Step Time =    1.000,"PART-1-1",          2259,  -20.0000E-03,  -50.0000E-03,   700.000E-03,NA,NA,"",  -20.0000E-03,  -50.0000E-03,   700.000E-03,   542.778E-03
C:/Users/touze/project/Shear_centre/strip/Job-1.odb,loading,Increment      1: Step Time =    1.000,"PART-1-1",          2260,  -20.0000E-03,  -100.000E-03,   700.000E-03,NA,NA,"",  -20.0000E-03,  -100.000E-03,   700.000E-03,   439.359E-03
C:/Users/touze/project/Shear_centre/strip/Job-1.odb,loading,Increment      1: Step Time =    1.000,"PART-1-1",          2261,  -20.0000E-03,  -150.000E-03,   700.000E-03,NA,NA,"",  -20.0000E-03,  -150.000E-03,   700.000E-03,   308.104E-03
C:/Users/touze/project/Shear_centre/strip/Job-1.odb,loading,Increment      1: Step Time =    1.000,"PART-1-1",          2262,  -20.0000E-03,  -200.000E-03,   700.000E-03,NA,NA,"",  -20.0000E-03,  -200.000E-03,   700.000E-03,   177.167E-03
C:/Users/touze/project/Shear_centre/strip/Job-1.odb,loading,Increment      1: Step Time =    1.000,"PART-1-1",          2263,  -20.0000E-03,     -250.E-03,   700.000E-03,NA,NA,"",  -20.0000E-03,     -250.E-03,   700.000E-03,   112.959E-03
C:/Users/touze/project/Shear_centre/strip/Job-1.odb,loading,Increment      1: Step Time =    1.000,"PART-1-1",          2264,  -20.0000E-03,  -300.000E-03,   700.000E-03,NA,NA,"",  -20.0000E-03,  -300.000E-03,   700.000E-03,   173.021E-03
C:/Users/touze/project/Shear_centre/strip/Job-1.odb,loading,Increment      1: Step Time =    1.000,"PART-1-1",          2265,  -20.0000E-03,  -350.000E-03,   700.000E-03,NA,NA,"",  -20.0000E-03,  -350.000E-03,   700.000E-03,   303.092E-03
C:/Users/touze/project/Shear_centre/strip/Job-1.odb,loading,Increment      1: Step Time =    1.000,"PART-1-1",          2266,  -20.0000E-03,  -400.000E-03,   700.000E-03,NA,NA,"",  -20.0000E-03,  -400.000E-03,   700.000E-03,   435.539E-03
C:/Users/touze/project/Shear_centre/strip/Job-1.odb,loading,Increment      1: Step Time =    1.000,"PART-1-1",          2267,  -20.0000E-03,  -450.000E-03,   700.000E-03,NA,NA,"",  -20.0000E-03,  -450.000E-03,   700.000E-03,   543.026E-03
C:/Users/touze/project/Shear_centre/strip/Job-1.odb,loading,Increment      1: Step Time =    1.000,"PART-1-1",          2248,  -20.0000E-03,      500.E-03,   700.000E-03,NA,NA,"",  -20.0000E-03,      500.E-03,   700.000E-03,   586.341E-03
C:/Users/touze/project/Shear_centre/strip/Job-1.odb,loading,Increment      1: Step Time =    1.000,"PART-1-1",          2268,  -20.0000E-03,     -500.E-03,   700.000E-03,NA,NA,"",  -20.0000E-03,     -500.E-03,   700.000E-03,   586.341E-03
C:/Users/touze/project/Shear_centre/strip/Job-1.odb,loading,Increment      1: Step Time =    1.000,"PART-1-1",           965,   20.0000E-03,  -450.000E-03,      750.E-03,NA,NA,"",   20.0000E-03,  -450.000E-03,      750.E-03,   526.591E-03
C:/Users/touze/project/Shear_centre/strip/Job-1.odb,loading,Increment      1: Step Time =    1.000,"PART-1-1",           964,   20.0000E-03,  -400.000E-03,      750.E-03,NA,NA,"",   20.0000E-03,  -400.000E-03,      750.E-03,   423.815E-03
C:/Users/touze/project/Shear_centre/strip/Job-1.odb,loading,Increment      1: Step Time =    1.000,"PART-1-1",           963,   20.0000E-03,  -350.000E-03,      750.E-03,NA,NA,"",   20.0000E-03,  -350.000E-03,      750.E-03,   295.706E-03
C:/Users/touze/project/Shear_centre/strip/Job-1.odb,loading,Increment      1: Step Time =    1.000,"PART-1-1",           962,   20.0000E-03,  -300.000E-03,      750.E-03,NA,NA,"",   20.0000E-03,  -300.000E-03,      750.E-03,   169.239E-03
C:/Users/touze/project/Shear_centre/strip/Job-1.odb,loading,Increment      1: Step Time =    1.000,"PART-1-1",           961,   20.0000E-03,     -250.E-03,      750.E-03,NA,NA,"",   20.0000E-03,     -250.E-03,      750.E-03,   110.794E-03
C:/Users/touze/project/Shear_centre/strip/Job-1.odb,loading,Increment      1: Step Time =    1.000,"PART-1-1",           960,   20.0000E-03,  -200.000E-03,      750.E-03,NA,NA,"",   20.0000E-03,  -200.000E-03,      750.E-03,   173.220E-03
C:/Users/touze/project/Shear_centre/strip/Job-1.odb,loading,Increment      1: Step Time =    1.000,"PART-1-1",           959,   20.0000E-03,  -150.000E-03,      750.E-03,NA,NA,"",   20.0000E-03,  -150.000E-03,      750.E-03,   300.493E-03
C:/Users/touze/project/Shear_centre/strip/Job-1.odb,loading,Increment      1: Step Time =    1.000,"PART-1-1",           958,   20.0000E-03,  -100.000E-03,      750.E-03,NA,NA,"",   20.0000E-03,  -100.000E-03,      750.E-03,   427.418E-03
C:/Users/touze/project/Shear_centre/strip/Job-1.odb,loading,Increment      1: Step Time =    1.000,"PART-1-1",           957,   20.0000E-03,  -50.0000E-03,      750.E-03,NA,NA,"",   20.0000E-03,  -50.0000E-03,      750.E-03,   526.458E-03
C:/Users/touze/project/Shear_centre/strip/Job-1.odb,loading,Increment      1: Step Time =    1.000,"PART-1-1",           946,   20.0000E-03,      500.E-03,      750.E-03,NA,NA,"",   20.0000E-03,      500.E-03,      750.E-03,   567.629E-03
C:/Users/touze/project/Shear_centre/strip/Job-1.odb,loading,Increment      1: Step Time =    1.000,"PART-1-1",           956,   20.0000E-03,            0.,      750.E-03,NA,NA,"",   20.0000E-03,            0.,      750.E-03,   565.073E-03
C:/Users/touze/project/Shear_centre/strip/Job-1.odb,loading,Increment      1: Step Time =    1.000,"PART-1-1",           955,   20.0000E-03,   50.0000E-03,      750.E-03,NA,NA,"",   20.0000E-03,   50.0000E-03,      750.E-03,   526.458E-03
C:/Users/touze/project/Shear_centre/strip/Job-1.odb,loading,Increment      1: Step Time =    1.000,"PART-1-1",           954,   20.0000E-03,   100.000E-03,      750.E-03,NA,NA,"",   20.0000E-03,   100.000E-03,      750.E-03,   427.418E-03
C:/Users/touze/project/Shear_centre/strip/Job-1.odb,loading,Increment      1: Step Time =    1.000,"PART-1-1",           953,   20.0000E-03,   150.000E-03,      750.E-03,NA,NA,"",   20.0000E-03,   150.000E-03,      750.E-03,   300.493E-03
C:/Users/touze/project/Shear_centre/strip/Job-1.odb,loading,Increment      1: Step Time =    1.000,"PART-1-1",           952,   20.0000E-03,   200.000E-03,      750.E-03,NA,NA,"",   20.0000E-03,   200.000E-03,      750.E-03,   173.220E-03
C:/Users/touze/project/Shear_centre/strip/Job-1.odb,loading,Increment      1: Step Time =    1.000,"PART-1-1",           951,   20.0000E-03,      250.E-03,      750.E-03,NA,NA,"",   20.0000E-03,      250.E-03,      750.E-03,   110.794E-03
C:/Users/touze/project/Shear_centre/strip/Job-1.odb,loading,Increment      1: Step Time =    1.000,"PART-1-1",           950,   20.0000E-03,   300.000E-03,      750.E-03,NA,NA,"",   20.0000E-03,   300.000E-03,      750.E-03,   169.239E-03
C:/Users/touze/project/Shear_centre/strip/Job-1.odb,loading,Increment      1: Step Time =    1.000,"PART-1-1",           949,   20.0000E-03,   350.000E-03,      750.E-03,NA,NA,"",   20.0000E-03,   350.000E-03,      750.E-03,   295.706E-03
C:/Users/touze/project/Shear_centre/strip/Job-1.odb,loading,Increment      1: Step Time =    1.000,"PART-1-1",           948,   20.0000E-03,   400.000E-03,      750.E-03,NA,NA,"",   20.0000E-03,   400.000E-03,      750.E-03,   423.815E-03
C:/Users/touze/project/Shear_centre/strip/Job-1.odb,loading,Increment      1: Step Time =    1.000,"PART-1-1",           947,   20.0000E-03,   450.000E-03,      750.E-03,NA,NA,"",   20.0000E-03,   450.000E-03,      750.E-03,   526.591E-03
C:/Users/touze/project/Shear_centre/strip/Job-1.odb,loading,Increment      1: Step Time =    1.000,"PART-1-1",          2228,  -20.0000E-03,   450.000E-03,      750.E-03,NA,NA,"",  -20.0000E-03,   450.000E-03,      750.E-03,   526.591E-03
C:/Users/touze/project/Shear_centre/strip/Job-1.odb,loading,Increment      1: Step Time =    1.000,"PART-1-1",          2229,  -20.0000E-03,   400.000E-03,      750.E-03,NA,NA,"",  -20.0000E-03,   400.000E-03,      750.E-03,   423.815E-03
C:/Users/touze/project/Shear_centre/strip/Job-1.odb,loading,Increment      1: Step Time =    1.000,"PART-1-1",          2230,  -20.0000E-03,   350.000E-03,      750.E-03,NA,NA,"",  -20.0000E-03,   350.000E-03,      750.E-03,   295.706E-03
C:/Users/touze/project/Shear_centre/strip/Job-1.odb,loading,Increment      1: Step Time =    1.000,"PART-1-1",          2231,  -20.0000E-03,   300.000E-03,      750.E-03,NA,NA,"",  -20.0000E-03,   300.000E-03,      750.E-03,   169.239E-03
C:/Users/touze/project/Shear_centre/strip/Job-1.odb,loading,Increment      1: Step Time =    1.000,"PART-1-1",          2232,  -20.0000E-03,      250.E-03,      750.E-03,NA,NA,"",  -20.0000E-03,      250.E-03,      750.E-03,   110.794E-03
C:/Users/touze/project/Shear_centre/strip/Job-1.odb,loading,Increment      1: Step Time =    1.000,"PART-1-1",          2233,  -20.0000E-03,   200.000E-03,      750.E-03,NA,NA,"",  -20.0000E-03,   200.000E-03,      750.E-03,   173.220E-03
C:/Users/touze/project/Shear_centre/strip/Job-1.odb,loading,Increment      1: Step Time =    1.000,"PART-1-1",          2234,  -20.0000E-03,   150.000E-03,      750.E-03,NA,NA,"",  -20.0000E-03,   150.000E-03,      750.E-03,   300.493E-03
C:/Users/touze/project/Shear_centre/strip/Job-1.odb,loading,Increment      1: Step Time =    1.000,"PART-1-1",          2235,  -20.0000E-03,   100.000E-03,      750.E-03,NA,NA,"",  -20.0000E-03,   100.000E-03,      750.E-03,   427.418E-03
C:/Users/touze/project/Shear_centre/strip/Job-1.odb,loading,Increment      1: Step Time =    1.000,"PART-1-1",          2236,  -20.0000E-03,   50.0000E-03,      750.E-03,NA,NA,"",  -20.0000E-03,   50.0000E-03,      750.E-03,   526.458E-03
C:/Users/touze/project/Shear_centre/strip/Job-1.odb,loading,Increment      1: Step Time =    1.000,"PART-1-1",          2237,  -20.0000E-03,            0.,      750.E-03,NA,NA,"",  -20.0000E-03,            0.,      750.E-03,   565.073E-03
C:/Users/touze/project/Shear_centre/strip/Job-1.odb,loading,Increment      1: Step Time =    1.000,"PART-1-1",          2238,  -20.0000E-03,  -50.0000E-03,      750.E-03,NA,NA,"",  -20.0000E-03,  -50.0000E-03,      750.E-03,   526.458E-03
C:/Users/touze/project/Shear_centre/strip/Job-1.odb,loading,Increment      1: Step Time =    1.000,"PART-1-1",          2239,  -20.0000E-03,  -100.000E-03,      750.E-03,NA,NA,"",  -20.0000E-03,  -100.000E-03,      750.E-03,   427.418E-03
C:/Users/touze/project/Shear_centre/strip/Job-1.odb,loading,Increment      1: Step Time =    1.000,"PART-1-1",          2240,  -20.0000E-03,  -150.000E-03,      750.E-03,NA,NA,"",  -20.0000E-03,  -150.000E-03,      750.E-03,   300.493E-03
C:/Users/touze/project/Shear_centre/strip/Job-1.odb,loading,Increment      1: Step Time =    1.000,"PART-1-1",          2241,  -20.0000E-03,  -200.000E-03,      750.E-03,NA,NA,"",  -20.0000E-03,  -200.000E-03,      750.E-03,   173.220E-03
C:/Users/touze/project/Shear_centre/strip/Job-1.odb,loading,Increment      1: Step Time =    1.000,"PART-1-1",          2242,  -20.0000E-03,     -250.E-03,      750.E-03,NA,NA,"",  -20.0000E-03,     -250.E-03,      750.E-03,   110.794E-03
C:/Users/touze/project/Shear_centre/strip/Job-1.odb,loading,Increment      1: Step Time =    1.000,"PART-1-1",          2243,  -20.0000E-03,  -300.000E-03,      750.E-03,NA,NA,"",  -20.0000E-03,  -300.000E-03,      750.E-03,   169.239E-03
C:/Users/touze/project/Shear_centre/strip/Job-1.odb,loading,Increment      1: Step Time =    1.000,"PART-1-1",          2244,  -20.0000E-03,  -350.000E-03,      750.E-03,NA,NA,"",  -20.0000E-03,  -350.000E-03,      750.E-03,   295.706E-03
C:/Users/touze/project/Shear_centre/strip/Job-1.odb,loading,Increment      1: Step Time =    1.000,"PART-1-1",          2245,  -20.0000E-03,  -400.000E-03,      750.E-03,NA,NA,"",  -20.0000E-03,  -400.000E-03,      750.E-03,   423.815E-03
C:/Users/touze/project/Shear_centre/strip/Job-1.odb,loading,Increment      1: Step Time =    1.000,"PART-1-1",          2246,  -20.0000E-03,  -450.000E-03,      750.E-03,NA,NA,"",  -20.0000E-03,  -450.000E-03,      750.E-03,   526.591E-03
C:/Users/touze/project/Shear_centre/strip/Job-1.odb,loading,Increment      1: Step Time =    1.000,"PART-1-1",          2247,  -20.0000E-03,     -500.E-03,      750.E-03,NA,NA,"",  -20.0000E-03,     -500.E-03,      750.E-03,   567.629E-03
C:/Users/touze/project/Shear_centre/strip/Job-1.odb,loading,Increment      1: Step Time =    1.000,"PART-1-1",          2227,  -20.0000E-03,      500.E-03,      750.E-03,NA,NA,"",  -20.0000E-03,      500.E-03,      750.E-03,   567.629E-03
C:/Users/touze/project/Shear_centre/strip/Job-1.odb,loading,Increment      1: Step Time =    1.000,"PART-1-1",           966,   20.0000E-03,     -500.E-03,      750.E-03,NA,NA,"",   20.0000E-03,     -500.E-03,      750.E-03,   567.629E-03
C:/Users/touze/project/Shear_centre/strip/Job-1.odb,loading,Increment      1: Step Time =    1.000,"PART-1-1",          2206,  -20.0000E-03,      500.E-03,   800.000E-03,NA,NA,"",  -20.0000E-03,      500.E-03,   800.000E-03,   549.489E-03
C:/Users/touze/project/Shear_centre/strip/Job-1.odb,loading,Increment      1: Step Time =    1.000,"PART-1-1",          2207,  -20.0000E-03,   450.000E-03,   800.000E-03,NA,NA,"",  -20.0000E-03,   450.000E-03,   800.000E-03,   510.591E-03
C:/Users/touze/project/Shear_centre/strip/Job-1.odb,loading,Increment      1: Step Time =    1.000,"PART-1-1",          2208,  -20.0000E-03,   400.000E-03,   800.000E-03,NA,NA,"",  -20.0000E-03,   400.000E-03,   800.000E-03,   412.271E-03
C:/Users/touze/project/Shear_centre/strip/Job-1.odb,loading,Increment      1: Step Time =    1.000,"PART-1-1",          2209,  -20.0000E-03,   350.000E-03,   800.000E-03,NA,NA,"",  -20.0000E-03,   350.000E-03,   800.000E-03,   288.359E-03
C:/Users/touze/project/Shear_centre/strip/Job-1.odb,loading,Increment      1: Step Time =    1.000,"PART-1-1",          2210,  -20.0000E-03,   300.000E-03,   800.000E-03,NA,NA,"",  -20.0000E-03,   300.000E-03,   800.000E-03,   165.470E-03
C:/Users/touze/project/Shear_centre/strip/Job-1.odb,loading,Increment      1: Step Time =    1.000,"PART-1-1",          2211,  -20.0000E-03,      250.E-03,   800.000E-03,NA,NA,"",  -20.0000E-03,      250.E-03,   800.000E-03,   108.654E-03
C:/Users/touze/project/Shear_centre/strip/Job-1.odb,loading,Increment      1: Step Time =    1.000,"PART-1-1",          2212,  -20.0000E-03,   200.000E-03,   800.000E-03,NA,NA,"",  -20.0000E-03,   200.000E-03,   800.000E-03,   169.303E-03
C:/Users/touze/project/Shear_centre/strip/Job-1.odb,loading,Increment      1: Step Time =    1.000,"PART-1-1",          2213,  -20.0000E-03,   150.000E-03,   800.000E-03,NA,NA,"",  -20.0000E-03,   150.000E-03,   800.000E-03,   292.906E-03
C:/Users/touze/project/Shear_centre/strip/Job-1.odb,loading,Increment      1: Step Time =    1.000,"PART-1-1",          2214,  -20.0000E-03,   100.000E-03,   800.000E-03,NA,NA,"",  -20.0000E-03,   100.000E-03,   800.000E-03,   415.593E-03
C:/Users/touze/project/Shear_centre/strip/Job-1.odb,loading,Increment      1: Step Time =    1.000,"PART-1-1",          2216,  -20.0000E-03,            0.,   800.000E-03,NA,NA,"",  -20.0000E-03,            0.,   800.000E-03,   547.310E-03
C:/Users/touze/project/Shear_centre/strip/Job-1.odb,loading,Increment      1: Step Time =    1.000,"PART-1-1",          2217,  -20.0000E-03,  -50.0000E-03,   800.000E-03,NA,NA,"",  -20.0000E-03,  -50.0000E-03,   800.000E-03,   510.526E-03
C:/Users/touze/project/Shear_centre/strip/Job-1.odb,loading,Increment      1: Step Time =    1.000,"PART-1-1",          2218,  -20.0000E-03,  -100.000E-03,   800.000E-03,NA,NA,"",  -20.0000E-03,  -100.000E-03,   800.000E-03,   415.593E-03
C:/Users/touze/project/Shear_centre/strip/Job-1.odb,loading,Increment      1: Step Time =    1.000,"PART-1-1",          2219,  -20.0000E-03,  -150.000E-03,   800.000E-03,NA,NA,"",  -20.0000E-03,  -150.000E-03,   800.000E-03,   292.906E-03
C:/Users/touze/project/Shear_centre/strip/Job-1.odb,loading,Increment      1: Step Time =    1.000,"PART-1-1",          2220,  -20.0000E-03,  -200.000E-03,   800.000E-03,NA,NA,"",  -20.0000E-03,  -200.000E-03,   800.000E-03,   169.303E-03
C:/Users/touze/project/Shear_centre/strip/Job-1.odb,loading,Increment      1: Step Time =    1.000,"PART-1-1",          2221,  -20.0000E-03,     -250.E-03,   800.000E-03,NA,NA,"",  -20.0000E-03,     -250.E-03,   800.000E-03,   108.654E-03
C:/Users/touze/project/Shear_centre/strip/Job-1.odb,loading,Increment      1: Step Time =    1.000,"PART-1-1",          2222,  -20.0000E-03,  -300.000E-03,   800.000E-03,NA,NA,"",  -20.0000E-03,  -300.000E-03,   800.000E-03,   165.470E-03
C:/Users/touze/project/Shear_centre/strip/Job-1.odb,loading,Increment      1: Step Time =    1.000,"PART-1-1",          2223,  -20.0000E-03,  -350.000E-03,   800.000E-03,NA,NA,"",  -20.0000E-03,  -350.000E-03,   800.000E-03,   288.359E-03
C:/Users/touze/project/Shear_centre/strip/Job-1.odb,loading,Increment      1: Step Time =    1.000,"PART-1-1",          2224,  -20.0000E-03,  -400.000E-03,   800.000E-03,NA,NA,"",  -20.0000E-03,  -400.000E-03,   800.000E-03,   412.271E-03
C:/Users/touze/project/Shear_centre/strip/Job-1.odb,loading,Increment      1: Step Time =    1.000,"PART-1-1",          2226,  -20.0000E-03,     -500.E-03,   800.000E-03,NA,NA,"",  -20.0000E-03,     -500.E-03,   800.000E-03,   549.489E-03
C:/Users/touze/project/Shear_centre/strip/Job-1.odb,loading,Increment      1: Step Time =    1.000,"PART-1-1",          2215,  -20.0000E-03,   50.0000E-03,   800.000E-03,NA,NA,"",  -20.0000E-03,   50.0000E-03,   800.000E-03,   510.526E-03
C:/Users/touze/project/Shear_centre/strip/Job-1.odb,loading,Increment      1: Step Time =    1.000,"PART-1-1",           945,   20.0000E-03,     -500.E-03,   800.000E-03,NA,NA,"",   20.0000E-03,     -500.E-03,   800.000E-03,   549.489E-03
C:/Users/touze/project/Shear_centre/strip/Job-1.odb,loading,Increment      1: Step Time =    1.000,"PART-1-1",           944,   20.0000E-03,  -450.000E-03,   800.000E-03,NA,NA,"",   20.0000E-03,  -450.000E-03,   800.000E-03,   510.591E-03
C:/Users/touze/project/Shear_centre/strip/Job-1.odb,loading,Increment      1: Step Time =    1.000,"PART-1-1",           943,   20.0000E-03,  -400.000E-03,   800.000E-03,NA,NA,"",   20.0000E-03,  -400.000E-03,   800.000E-03,   412.271E-03
C:/Users/touze/project/Shear_centre/strip/Job-1.odb,loading,Increment      1: Step Time =    1.000,"PART-1-1",           942,   20.0000E-03,  -350.000E-03,   800.000E-03,NA,NA,"",   20.0000E-03,  -350.000E-03,   800.000E-03,   288.359E-03
C:/Users/touze/project/Shear_centre/strip/Job-1.odb,loading,Increment      1: Step Time =    1.000,"PART-1-1",           941,   20.0000E-03,  -300.000E-03,   800.000E-03,NA,NA,"",   20.0000E-03,  -300.000E-03,   800.000E-03,   165.470E-03
C:/Users/touze/project/Shear_centre/strip/Job-1.odb,loading,Increment      1: Step Time =    1.000,"PART-1-1",           940,   20.0000E-03,     -250.E-03,   800.000E-03,NA,NA,"",   20.0000E-03,     -250.E-03,   800.000E-03,   108.654E-03
C:/Users/touze/project/Shear_centre/strip/Job-1.odb,loading,Increment      1: Step Time =    1.000,"PART-1-1",           939,   20.0000E-03,  -200.000E-03,   800.000E-03,NA,NA,"",   20.0000E-03,  -200.000E-03,   800.000E-03,   169.303E-03
C:/Users/touze/project/Shear_centre/strip/Job-1.odb,loading,Increment      1: Step Time =    1.000,"PART-1-1",           938,   20.0000E-03,  -150.000E-03,   800.000E-03,NA,NA,"",   20.0000E-03,  -150.000E-03,   800.000E-03,   292.906E-03
C:/Users/touze/project/Shear_centre/strip/Job-1.odb,loading,Increment      1: Step Time =    1.000,"PART-1-1",           937,   20.0000E-03,  -100.000E-03,   800.000E-03,NA,NA,"",   20.0000E-03,  -100.000E-03,   800.000E-03,   415.593E-03
C:/Users/touze/project/Shear_centre/strip/Job-1.odb,loading,Increment      1: Step Time =    1.000,"PART-1-1",           936,   20.0000E-03,  -50.0000E-03,   800.000E-03,NA,NA,"",   20.0000E-03,  -50.0000E-03,   800.000E-03,   510.526E-03
C:/Users/touze/project/Shear_centre/strip/Job-1.odb,loading,Increment      1: Step Time =    1.000,"PART-1-1",           935,   20.0000E-03,            0.,   800.000E-03,NA,NA,"",   20.0000E-03,            0.,   800.000E-03,   547.310E-03
C:/Users/touze/project/Shear_centre/strip/Job-1.odb,loading,Increment      1: Step Time =    1.000,"PART-1-1",           934,   20.0000E-03,   50.0000E-03,   800.000E-03,NA,NA,"",   20.0000E-03,   50.0000E-03,   800.000E-03,   510.526E-03
C:/Users/touze/project/Shear_centre/strip/Job-1.odb,loading,Increment      1: Step Time =    1.000,"PART-1-1",           933,   20.0000E-03,   100.000E-03,   800.000E-03,NA,NA,"",   20.0000E-03,   100.000E-03,   800.000E-03,   415.593E-03
C:/Users/touze/project/Shear_centre/strip/Job-1.odb,loading,Increment      1: Step Time =    1.000,"PART-1-1",           932,   20.0000E-03,   150.000E-03,   800.000E-03,NA,NA,"",   20.0000E-03,   150.000E-03,   800.000E-03,   292.906E-03
C:/Users/touze/project/Shear_centre/strip/Job-1.odb,loading,Increment      1: Step Time =    1.000,"PART-1-1",           931,   20.0000E-03,   200.000E-03,   800.000E-03,NA,NA,"",   20.0000E-03,   200.000E-03,   800.000E-03,   169.303E-03
C:/Users/touze/project/Shear_centre/strip/Job-1.odb,loading,Increment      1: Step Time =    1.000,"PART-1-1",           930,   20.0000E-03,      250.E-03,   800.000E-03,NA,NA,"",   20.0000E-03,      250.E-03,   800.000E-03,   108.654E-03
C:/Users/touze/project/Shear_centre/strip/Job-1.odb,loading,Increment      1: Step Time =    1.000,"PART-1-1",           929,   20.0000E-03,   300.000E-03,   800.000E-03,NA,NA,"",   20.0000E-03,   300.000E-03,   800.000E-03,   165.470E-03
C:/Users/touze/project/Shear_centre/strip/Job-1.odb,loading,Increment      1: Step Time =    1.000,"PART-1-1",           928,   20.0000E-03,   350.000E-03,   800.000E-03,NA,NA,"",   20.0000E-03,   350.000E-03,   800.000E-03,   288.359E-03
C:/Users/touze/project/Shear_centre/strip/Job-1.odb,loading,Increment      1: Step Time =    1.000,"PART-1-1",           927,   20.0000E-03,   400.000E-03,   800.000E-03,NA,NA,"",   20.0000E-03,   400.000E-03,   800.000E-03,   412.271E-03
C:/Users/touze/project/Shear_centre/strip/Job-1.odb,loading,Increment      1: Step Time =    1.000,"PART-1-1",           926,   20.0000E-03,   450.000E-03,   800.000E-03,NA,NA,"",   20.0000E-03,   450.000E-03,   800.000E-03,   510.591E-03
C:/Users/touze/project/Shear_centre/strip/Job-1.odb,loading,Increment      1: Step Time =    1.000,"PART-1-1",           925,   20.0000E-03,      500.E-03,   800.000E-03,NA,NA,"",   20.0000E-03,      500.E-03,   800.000E-03,   549.489E-03
C:/Users/touze/project/Shear_centre/strip/Job-1.odb,loading,Increment      1: Step Time =    1.000,"PART-1-1",          2225,  -20.0000E-03,  -450.000E-03,   800.000E-03,NA,NA,"",  -20.0000E-03,  -450.000E-03,   800.000E-03,   510.591E-03
C:/Users/touze/project/Shear_centre/strip/Job-1.odb,loading,Increment      1: Step Time =    1.000,"PART-1-1",           924,   20.0000E-03,     -500.E-03,   850.000E-03,NA,NA,"",   20.0000E-03,     -500.E-03,   850.000E-03,   531.767E-03
C:/Users/touze/project/Shear_centre/strip/Job-1.odb,loading,Increment      1: Step Time =    1.000,"PART-1-1",          2205,  -20.0000E-03,     -500.E-03,   850.000E-03,NA,NA,"",  -20.0000E-03,     -500.E-03,   850.000E-03,   531.767E-03
C:/Users/touze/project/Shear_centre/strip/Job-1.odb,loading,Increment      1: Step Time =    1.000,"PART-1-1",          2204,  -20.0000E-03,  -450.000E-03,   850.000E-03,NA,NA,"",  -20.0000E-03,  -450.000E-03,   850.000E-03,   494.836E-03
C:/Users/touze/project/Shear_centre/strip/Job-1.odb,loading,Increment      1: Step Time =    1.000,"PART-1-1",          2203,  -20.0000E-03,  -400.000E-03,   850.000E-03,NA,NA,"",  -20.0000E-03,  -400.000E-03,   850.000E-03,   400.776E-03
C:/Users/touze/project/Shear_centre/strip/Job-1.odb,loading,Increment      1: Step Time =    1.000,"PART-1-1",          2202,  -20.0000E-03,  -350.000E-03,   850.000E-03,NA,NA,"",  -20.0000E-03,  -350.000E-03,   850.000E-03,   281.055E-03
C:/Users/touze/project/Shear_centre/strip/Job-1.odb,loading,Increment      1: Step Time =    1.000,"PART-1-1",          2201,  -20.0000E-03,  -300.000E-03,   850.000E-03,NA,NA,"",  -20.0000E-03,  -300.000E-03,   850.000E-03,   161.753E-03
C:/Users/touze/project/Shear_centre/strip/Job-1.odb,loading,Increment      1: Step Time =    1.000,"PART-1-1",          2200,  -20.0000E-03,     -250.E-03,   850.000E-03,NA,NA,"",  -20.0000E-03,     -250.E-03,   850.000E-03,   106.548E-03
C:/Users/touze/project/Shear_centre/strip/Job-1.odb,loading,Increment      1: Step Time =    1.000,"PART-1-1",          2199,  -20.0000E-03,  -200.000E-03,   850.000E-03,NA,NA,"",  -20.0000E-03,  -200.000E-03,   850.000E-03,   165.421E-03
C:/Users/touze/project/Shear_centre/strip/Job-1.odb,loading,Increment      1: Step Time =    1.000,"PART-1-1",          2198,  -20.0000E-03,  -150.000E-03,   850.000E-03,NA,NA,"",  -20.0000E-03,  -150.000E-03,   850.000E-03,   285.381E-03
C:/Users/touze/project/Shear_centre/strip/Job-1.odb,loading,Increment      1: Step Time =    1.000,"PART-1-1",          2197,  -20.0000E-03,  -100.000E-03,   850.000E-03,NA,NA,"",  -20.0000E-03,  -100.000E-03,   850.000E-03,   403.914E-03
C:/Users/touze/project/Shear_centre/strip/Job-1.odb,loading,Increment      1: Step Time =    1.000,"PART-1-1",          2196,  -20.0000E-03,  -50.0000E-03,   850.000E-03,NA,NA,"",  -20.0000E-03,  -50.0000E-03,   850.000E-03,   494.873E-03
C:/Users/touze/project/Shear_centre/strip/Job-1.odb,loading,Increment      1: Step Time =    1.000,"PART-1-1",          2195,  -20.0000E-03,            0.,   850.000E-03,NA,NA,"",  -20.0000E-03,            0.,   850.000E-03,   529.895E-03
C:/Users/touze/project/Shear_centre/strip/Job-1.odb,loading,Increment      1: Step Time =    1.000,"PART-1-1",          2194,  -20.0000E-03,   50.0000E-03,   850.000E-03,NA,NA,"",  -20.0000E-03,   50.0000E-03,   850.000E-03,   494.873E-03
C:/Users/touze/project/Shear_centre/strip/Job-1.odb,loading,Increment      1: Step Time =    1.000,"PART-1-1",          2193,  -20.0000E-03,   100.000E-03,   850.000E-03,NA,NA,"",  -20.0000E-03,   100.000E-03,   850.000E-03,   403.914E-03
C:/Users/touze/project/Shear_centre/strip/Job-1.odb,loading,Increment      1: Step Time =    1.000,"PART-1-1",          2192,  -20.0000E-03,   150.000E-03,   850.000E-03,NA,NA,"",  -20.0000E-03,   150.000E-03,   850.000E-03,   285.381E-03
C:/Users/touze/project/Shear_centre/strip/Job-1.odb,loading,Increment      1: Step Time =    1.000,"PART-1-1",          2191,  -20.0000E-03,   200.000E-03,   850.000E-03,NA,NA,"",  -20.0000E-03,   200.000E-03,   850.000E-03,   165.421E-03
C:/Users/touze/project/Shear_centre/strip/Job-1.odb,loading,Increment      1: Step Time =    1.000,"PART-1-1",          2190,  -20.0000E-03,      250.E-03,   850.000E-03,NA,NA,"",  -20.0000E-03,      250.E-03,   850.000E-03,   106.548E-03
C:/Users/touze/project/Shear_centre/strip/Job-1.odb,loading,Increment      1: Step Time =    1.000,"PART-1-1",          2189,  -20.0000E-03,   300.000E-03,   850.000E-03,NA,NA,"",  -20.0000E-03,   300.000E-03,   850.000E-03,   161.753E-03
C:/Users/touze/project/Shear_centre/strip/Job-1.odb,loading,Increment      1: Step Time =    1.000,"PART-1-1",          2188,  -20.0000E-03,   350.000E-03,   850.000E-03,NA,NA,"",  -20.0000E-03,   350.000E-03,   850.000E-03,   281.055E-03
C:/Users/touze/project/Shear_centre/strip/Job-1.odb,loading,Increment      1: Step Time =    1.000,"PART-1-1",          2187,  -20.0000E-03,   400.000E-03,   850.000E-03,NA,NA,"",  -20.0000E-03,   400.000E-03,   850.000E-03,   400.776E-03
C:/Users/touze/project/Shear_centre/strip/Job-1.odb,loading,Increment      1: Step Time =    1.000,"PART-1-1",          2186,  -20.0000E-03,   450.000E-03,   850.000E-03,NA,NA,"",  -20.0000E-03,   450.000E-03,   850.000E-03,   494.836E-03
C:/Users/touze/project/Shear_centre/strip/Job-1.odb,loading,Increment      1: Step Time =    1.000,"PART-1-1",          2185,  -20.0000E-03,      500.E-03,   850.000E-03,NA,NA,"",  -20.0000E-03,      500.E-03,   850.000E-03,   531.767E-03
C:/Users/touze/project/Shear_centre/strip/Job-1.odb,loading,Increment      1: Step Time =    1.000,"PART-1-1",           922,   20.0000E-03,  -400.000E-03,   850.000E-03,NA,NA,"",   20.0000E-03,  -400.000E-03,   850.000E-03,   400.776E-03
C:/Users/touze/project/Shear_centre/strip/Job-1.odb,loading,Increment      1: Step Time =    1.000,"PART-1-1",           921,   20.0000E-03,  -350.000E-03,   850.000E-03,NA,NA,"",   20.0000E-03,  -350.000E-03,   850.000E-03,   281.055E-03
C:/Users/touze/project/Shear_centre/strip/Job-1.odb,loading,Increment      1: Step Time =    1.000,"PART-1-1",           920,   20.0000E-03,  -300.000E-03,   850.000E-03,NA,NA,"",   20.0000E-03,  -300.000E-03,   850.000E-03,   161.753E-03
C:/Users/touze/project/Shear_centre/strip/Job-1.odb,loading,Increment      1: Step Time =    1.000,"PART-1-1",           919,   20.0000E-03,     -250.E-03,   850.000E-03,NA,NA,"",   20.0000E-03,     -250.E-03,   850.000E-03,   106.548E-03
C:/Users/touze/project/Shear_centre/strip/Job-1.odb,loading,Increment      1: Step Time =    1.000,"PART-1-1",           918,   20.0000E-03,  -200.000E-03,   850.000E-03,NA,NA,"",   20.0000E-03,  -200.000E-03,   850.000E-03,   165.421E-03
C:/Users/touze/project/Shear_centre/strip/Job-1.odb,loading,Increment      1: Step Time =    1.000,"PART-1-1",           917,   20.0000E-03,  -150.000E-03,   850.000E-03,NA,NA,"",   20.0000E-03,  -150.000E-03,   850.000E-03,   285.381E-03
C:/Users/touze/project/Shear_centre/strip/Job-1.odb,loading,Increment      1: Step Time =    1.000,"PART-1-1",           916,   20.0000E-03,  -100.000E-03,   850.000E-03,NA,NA,"",   20.0000E-03,  -100.000E-03,   850.000E-03,   403.914E-03
C:/Users/touze/project/Shear_centre/strip/Job-1.odb,loading,Increment      1: Step Time =    1.000,"PART-1-1",           915,   20.0000E-03,  -50.0000E-03,   850.000E-03,NA,NA,"",   20.0000E-03,  -50.0000E-03,   850.000E-03,   494.873E-03
C:/Users/touze/project/Shear_centre/strip/Job-1.odb,loading,Increment      1: Step Time =    1.000,"PART-1-1",           914,   20.0000E-03,            0.,   850.000E-03,NA,NA,"",   20.0000E-03,            0.,   850.000E-03,   529.895E-03
C:/Users/touze/project/Shear_centre/strip/Job-1.odb,loading,Increment      1: Step Time =    1.000,"PART-1-1",           913,   20.0000E-03,   50.0000E-03,   850.000E-03,NA,NA,"",   20.0000E-03,   50.0000E-03,   850.000E-03,   494.873E-03
C:/Users/touze/project/Shear_centre/strip/Job-1.odb,loading,Increment      1: Step Time =    1.000,"PART-1-1",           912,   20.0000E-03,   100.000E-03,   850.000E-03,NA,NA,"",   20.0000E-03,   100.000E-03,   850.000E-03,   403.914E-03
C:/Users/touze/project/Shear_centre/strip/Job-1.odb,loading,Increment      1: Step Time =    1.000,"PART-1-1",           911,   20.0000E-03,   150.000E-03,   850.000E-03,NA,NA,"",   20.0000E-03,   150.000E-03,   850.000E-03,   285.381E-03
C:/Users/touze/project/Shear_centre/strip/Job-1.odb,loading,Increment      1: Step Time =    1.000,"PART-1-1",           910,   20.0000E-03,   200.000E-03,   850.000E-03,NA,NA,"",   20.0000E-03,   200.000E-03,   850.000E-03,   165.421E-03
C:/Users/touze/project/Shear_centre/strip/Job-1.odb,loading,Increment      1: Step Time =    1.000,"PART-1-1",           909,   20.0000E-03,      250.E-03,   850.000E-03,NA,NA,"",   20.0000E-03,      250.E-03,   850.000E-03,   106.548E-03
C:/Users/touze/project/Shear_centre/strip/Job-1.odb,loading,Increment      1: Step Time =    1.000,"PART-1-1",           908,   20.0000E-03,   300.000E-03,   850.000E-03,NA,NA,"",   20.0000E-03,   300.000E-03,   850.000E-03,   161.753E-03
C:/Users/touze/project/Shear_centre/strip/Job-1.odb,loading,Increment      1: Step Time =    1.000,"PART-1-1",           907,   20.0000E-03,   350.000E-03,   850.000E-03,NA,NA,"",   20.0000E-03,   350.000E-03,   850.000E-03,   281.055E-03
C:/Users/touze/project/Shear_centre/strip/Job-1.odb,loading,Increment      1: Step Time =    1.000,"PART-1-1",           906,   20.0000E-03,   400.000E-03,   850.000E-03,NA,NA,"",   20.0000E-03,   400.000E-03,   850.000E-03,   400.776E-03
C:/Users/touze/project/Shear_centre/strip/Job-1.odb,loading,Increment      1: Step Time =    1.000,"PART-1-1",           905,   20.0000E-03,   450.000E-03,   850.000E-03,NA,NA,"",   20.0000E-03,   450.000E-03,   850.000E-03,   494.836E-03
C:/Users/touze/project/Shear_centre/strip/Job-1.odb,loading,Increment      1: Step Time =    1.000,"PART-1-1",           904,   20.0000E-03,      500.E-03,   850.000E-03,NA,NA,"",   20.0000E-03,      500.E-03,   850.000E-03,   531.767E-03
C:/Users/touze/project/Shear_centre/strip/Job-1.odb,loading,Increment      1: Step Time =    1.000,"PART-1-1",           923,   20.0000E-03,  -450.000E-03,   850.000E-03,NA,NA,"",   20.0000E-03,  -450.000E-03,   850.000E-03,   494.836E-03
C:/Users/touze/project/Shear_centre/strip/Job-1.odb,loading,Increment      1: Step Time =    1.000,"PART-1-1",          2164,  -20.0000E-03,      500.E-03,   900.000E-03,NA,NA,"",  -20.0000E-03,      500.E-03,   900.000E-03,   514.535E-03
C:/Users/touze/project/Shear_centre/strip/Job-1.odb,loading,Increment      1: Step Time =    1.000,"PART-1-1",           885,   20.0000E-03,   400.000E-03,   900.000E-03,NA,NA,"",   20.0000E-03,   400.000E-03,   900.000E-03,   389.444E-03
C:/Users/touze/project/Shear_centre/strip/Job-1.odb,loading,Increment      1: Step Time =    1.000,"PART-1-1",           886,   20.0000E-03,   350.000E-03,   900.000E-03,NA,NA,"",   20.0000E-03,   350.000E-03,   900.000E-03,   273.790E-03
C:/Users/touze/project/Shear_centre/strip/Job-1.odb,loading,Increment      1: Step Time =    1.000,"PART-1-1",           887,   20.0000E-03,   300.000E-03,   900.000E-03,NA,NA,"",   20.0000E-03,   300.000E-03,   900.000E-03,   158.056E-03
C:/Users/touze/project/Shear_centre/strip/Job-1.odb,loading,Increment      1: Step Time =    1.000,"PART-1-1",           888,   20.0000E-03,      250.E-03,   900.000E-03,NA,NA,"",   20.0000E-03,      250.E-03,   900.000E-03,   104.472E-03
C:/Users/touze/project/Shear_centre/strip/Job-1.odb,loading,Increment      1: Step Time =    1.000,"PART-1-1",           889,   20.0000E-03,   200.000E-03,   900.000E-03,NA,NA,"",   20.0000E-03,   200.000E-03,   900.000E-03,   161.573E-03
C:/Users/touze/project/Shear_centre/strip/Job-1.odb,loading,Increment      1: Step Time =    1.000,"PART-1-1",           890,   20.0000E-03,   150.000E-03,   900.000E-03,NA,NA,"",   20.0000E-03,   150.000E-03,   900.000E-03,   277.896E-03
C:/Users/touze/project/Shear_centre/strip/Job-1.odb,loading,Increment      1: Step Time =    1.000,"PART-1-1",           891,   20.0000E-03,   100.000E-03,   900.000E-03,NA,NA,"",   20.0000E-03,   100.000E-03,   900.000E-03,   392.363E-03
C:/Users/touze/project/Shear_centre/strip/Job-1.odb,loading,Increment      1: Step Time =    1.000,"PART-1-1",           892,   20.0000E-03,   50.0000E-03,   900.000E-03,NA,NA,"",   20.0000E-03,   50.0000E-03,   900.000E-03,   479.569E-03
C:/Users/touze/project/Shear_centre/strip/Job-1.odb,loading,Increment      1: Step Time =    1.000,"PART-1-1",           893,   20.0000E-03,            0.,   900.000E-03,NA,NA,"",   20.0000E-03,            0.,   900.000E-03,   512.969E-03
C:/Users/touze/project/Shear_centre/strip/Job-1.odb,loading,Increment      1: Step Time =    1.000,"PART-1-1",           894,   20.0000E-03,  -50.0000E-03,   900.000E-03,NA,NA,"",   20.0000E-03,  -50.0000E-03,   900.000E-03,   479.569E-03
C:/Users/touze/project/Shear_centre/strip/Job-1.odb,loading,Increment      1: Step Time =    1.000,"PART-1-1",           895,   20.0000E-03,  -100.000E-03,   900.000E-03,NA,NA,"",   20.0000E-03,  -100.000E-03,   900.000E-03,   392.363E-03
C:/Users/touze/project/Shear_centre/strip/Job-1.odb,loading,Increment      1: Step Time =    1.000,"PART-1-1",           896,   20.0000E-03,  -150.000E-03,   900.000E-03,NA,NA,"",   20.0000E-03,  -150.000E-03,   900.000E-03,   277.896E-03
C:/Users/touze/project/Shear_centre/strip/Job-1.odb,loading,Increment      1: Step Time =    1.000,"PART-1-1",           897,   20.0000E-03,  -200.000E-03,   900.000E-03,NA,NA,"",   20.0000E-03,  -200.000E-03,   900.000E-03,   161.573E-03
C:/Users/touze/project/Shear_centre/strip/Job-1.odb,loading,Increment      1: Step Time =    1.000,"PART-1-1",           898,   20.0000E-03,     -250.E-03,   900.000E-03,NA,NA,"",   20.0000E-03,     -250.E-03,   900.000E-03,   104.472E-03
C:/Users/touze/project/Shear_centre/strip/Job-1.odb,loading,Increment      1: Step Time =    1.000,"PART-1-1",           899,   20.0000E-03,  -300.000E-03,   900.000E-03,NA,NA,"",   20.0000E-03,  -300.000E-03,   900.000E-03,   158.056E-03
C:/Users/touze/project/Shear_centre/strip/Job-1.odb,loading,Increment      1: Step Time =    1.000,"PART-1-1",           900,   20.0000E-03,  -350.000E-03,   900.000E-03,NA,NA,"",   20.0000E-03,  -350.000E-03,   900.000E-03,   273.790E-03
C:/Users/touze/project/Shear_centre/strip/Job-1.odb,loading,Increment      1: Step Time =    1.000,"PART-1-1",           901,   20.0000E-03,  -400.000E-03,   900.000E-03,NA,NA,"",   20.0000E-03,  -400.000E-03,   900.000E-03,   389.444E-03
C:/Users/touze/project/Shear_centre/strip/Job-1.odb,loading,Increment      1: Step Time =    1.000,"PART-1-1",           902,   20.0000E-03,  -450.000E-03,   900.000E-03,NA,NA,"",   20.0000E-03,  -450.000E-03,   900.000E-03,   479.461E-03
C:/Users/touze/project/Shear_centre/strip/Job-1.odb,loading,Increment      1: Step Time =    1.000,"PART-1-1",           903,   20.0000E-03,     -500.E-03,   900.000E-03,NA,NA,"",   20.0000E-03,     -500.E-03,   900.000E-03,   514.535E-03
C:/Users/touze/project/Shear_centre/strip/Job-1.odb,loading,Increment      1: Step Time =    1.000,"PART-1-1",           884,   20.0000E-03,   450.000E-03,   900.000E-03,NA,NA,"",   20.0000E-03,   450.000E-03,   900.000E-03,   479.461E-03
C:/Users/touze/project/Shear_centre/strip/Job-1.odb,loading,Increment      1: Step Time =    1.000,"PART-1-1",          2166,  -20.0000E-03,   400.000E-03,   900.000E-03,NA,NA,"",  -20.0000E-03,   400.000E-03,   900.000E-03,   389.444E-03
C:/Users/touze/project/Shear_centre/strip/Job-1.odb,loading,Increment      1: Step Time =    1.000,"PART-1-1",          2167,  -20.0000E-03,   350.000E-03,   900.000E-03,NA,NA,"",  -20.0000E-03,   350.000E-03,   900.000E-03,   273.790E-03
C:/Users/touze/project/Shear_centre/strip/Job-1.odb,loading,Increment      1: Step Time =    1.000,"PART-1-1",          2168,  -20.0000E-03,   300.000E-03,   900.000E-03,NA,NA,"",  -20.0000E-03,   300.000E-03,   900.000E-03,   158.056E-03
C:/Users/touze/project/Shear_centre/strip/Job-1.odb,loading,Increment      1: Step Time =    1.000,"PART-1-1",          2169,  -20.0000E-03,      250.E-03,   900.000E-03,NA,NA,"",  -20.0000E-03,      250.E-03,   900.000E-03,   104.472E-03
C:/Users/touze/project/Shear_centre/strip/Job-1.odb,loading,Increment      1: Step Time =    1.000,"PART-1-1",          2170,  -20.0000E-03,   200.000E-03,   900.000E-03,NA,NA,"",  -20.0000E-03,   200.000E-03,   900.000E-03,   161.573E-03
C:/Users/touze/project/Shear_centre/strip/Job-1.odb,loading,Increment      1: Step Time =    1.000,"PART-1-1",          2171,  -20.0000E-03,   150.000E-03,   900.000E-03,NA,NA,"",  -20.0000E-03,   150.000E-03,   900.000E-03,   277.896E-03
C:/Users/touze/project/Shear_centre/strip/Job-1.odb,loading,Increment      1: Step Time =    1.000,"PART-1-1",          2172,  -20.0000E-03,   100.000E-03,   900.000E-03,NA,NA,"",  -20.0000E-03,   100.000E-03,   900.000E-03,   392.363E-03
C:/Users/touze/project/Shear_centre/strip/Job-1.odb,loading,Increment      1: Step Time =    1.000,"PART-1-1",          2173,  -20.0000E-03,   50.0000E-03,   900.000E-03,NA,NA,"",  -20.0000E-03,   50.0000E-03,   900.000E-03,   479.569E-03
C:/Users/touze/project/Shear_centre/strip/Job-1.odb,loading,Increment      1: Step Time =    1.000,"PART-1-1",          2174,  -20.0000E-03,            0.,   900.000E-03,NA,NA,"",  -20.0000E-03,            0.,   900.000E-03,   512.969E-03
C:/Users/touze/project/Shear_centre/strip/Job-1.odb,loading,Increment      1: Step Time =    1.000,"PART-1-1",          2175,  -20.0000E-03,  -50.0000E-03,   900.000E-03,NA,NA,"",  -20.0000E-03,  -50.0000E-03,   900.000E-03,   479.569E-03
C:/Users/touze/project/Shear_centre/strip/Job-1.odb,loading,Increment      1: Step Time =    1.000,"PART-1-1",          2176,  -20.0000E-03,  -100.000E-03,   900.000E-03,NA,NA,"",  -20.0000E-03,  -100.000E-03,   900.000E-03,   392.363E-03
C:/Users/touze/project/Shear_centre/strip/Job-1.odb,loading,Increment      1: Step Time =    1.000,"PART-1-1",          2177,  -20.0000E-03,  -150.000E-03,   900.000E-03,NA,NA,"",  -20.0000E-03,  -150.000E-03,   900.000E-03,   277.896E-03
C:/Users/touze/project/Shear_centre/strip/Job-1.odb,loading,Increment      1: Step Time =    1.000,"PART-1-1",          2178,  -20.0000E-03,  -200.000E-03,   900.000E-03,NA,NA,"",  -20.0000E-03,  -200.000E-03,   900.000E-03,   161.573E-03
C:/Users/touze/project/Shear_centre/strip/Job-1.odb,loading,Increment      1: Step Time =    1.000,"PART-1-1",          2179,  -20.0000E-03,     -250.E-03,   900.000E-03,NA,NA,"",  -20.0000E-03,     -250.E-03,   900.000E-03,   104.472E-03
C:/Users/touze/project/Shear_centre/strip/Job-1.odb,loading,Increment      1: Step Time =    1.000,"PART-1-1",          2180,  -20.0000E-03,  -300.000E-03,   900.000E-03,NA,NA,"",  -20.0000E-03,  -300.000E-03,   900.000E-03,   158.056E-03
C:/Users/touze/project/Shear_centre/strip/Job-1.odb,loading,Increment      1: Step Time =    1.000,"PART-1-1",          2181,  -20.0000E-03,  -350.000E-03,   900.000E-03,NA,NA,"",  -20.0000E-03,  -350.000E-03,   900.000E-03,   273.790E-03
C:/Users/touze/project/Shear_centre/strip/Job-1.odb,loading,Increment      1: Step Time =    1.000,"PART-1-1",          2182,  -20.0000E-03,  -400.000E-03,   900.000E-03,NA,NA,"",  -20.0000E-03,  -400.000E-03,   900.000E-03,   389.444E-03
C:/Users/touze/project/Shear_centre/strip/Job-1.odb,loading,Increment      1: Step Time =    1.000,"PART-1-1",          2183,  -20.0000E-03,  -450.000E-03,   900.000E-03,NA,NA,"",  -20.0000E-03,  -450.000E-03,   900.000E-03,   479.461E-03
C:/Users/touze/project/Shear_centre/strip/Job-1.odb,loading,Increment      1: Step Time =    1.000,"PART-1-1",          2184,  -20.0000E-03,     -500.E-03,   900.000E-03,NA,NA,"",  -20.0000E-03,     -500.E-03,   900.000E-03,   514.535E-03
C:/Users/touze/project/Shear_centre/strip/Job-1.odb,loading,Increment      1: Step Time =    1.000,"PART-1-1",          2165,  -20.0000E-03,   450.000E-03,   900.000E-03,NA,NA,"",  -20.0000E-03,   450.000E-03,   900.000E-03,   479.461E-03
C:/Users/touze/project/Shear_centre/strip/Job-1.odb,loading,Increment      1: Step Time =    1.000,"PART-1-1",           883,   20.0000E-03,      500.E-03,   900.000E-03,NA,NA,"",   20.0000E-03,      500.E-03,   900.000E-03,   514.535E-03
C:/Users/touze/project/Shear_centre/strip/Job-1.odb,loading,Increment      1: Step Time =    1.000,"PART-1-1",          2162,  -20.0000E-03,  -450.000E-03,   950.000E-03,NA,NA,"",  -20.0000E-03,  -450.000E-03,   950.000E-03,   464.333E-03
C:/Users/touze/project/Shear_centre/strip/Job-1.odb,loading,Increment      1: Step Time =    1.000,"PART-1-1",          2161,  -20.0000E-03,  -400.000E-03,   950.000E-03,NA,NA,"",  -20.0000E-03,  -400.000E-03,   950.000E-03,   378.192E-03
C:/Users/touze/project/Shear_centre/strip/Job-1.odb,loading,Increment      1: Step Time =    1.000,"PART-1-1",          2160,  -20.0000E-03,  -350.000E-03,   950.000E-03,NA,NA,"",  -20.0000E-03,  -350.000E-03,   950.000E-03,   266.575E-03
C:/Users/touze/project/Shear_centre/strip/Job-1.odb,loading,Increment      1: Step Time =    1.000,"PART-1-1",          2159,  -20.0000E-03,  -300.000E-03,   950.000E-03,NA,NA,"",  -20.0000E-03,  -300.000E-03,   950.000E-03,   154.405E-03
C:/Users/touze/project/Shear_centre/strip/Job-1.odb,loading,Increment      1: Step Time =    1.000,"PART-1-1",          2158,  -20.0000E-03,     -250.E-03,   950.000E-03,NA,NA,"",  -20.0000E-03,     -250.E-03,   950.000E-03,   102.430E-03
C:/Users/touze/project/Shear_centre/strip/Job-1.odb,loading,Increment      1: Step Time =    1.000,"PART-1-1",          2157,  -20.0000E-03,  -200.000E-03,   950.000E-03,NA,NA,"",  -20.0000E-03,  -200.000E-03,   950.000E-03,   157.759E-03
C:/Users/touze/project/Shear_centre/strip/Job-1.odb,loading,Increment      1: Step Time =    1.000,"PART-1-1",          2156,  -20.0000E-03,  -150.000E-03,   950.000E-03,NA,NA,"",  -20.0000E-03,  -150.000E-03,   950.000E-03,   270.470E-03
C:/Users/touze/project/Shear_centre/strip/Job-1.odb,loading,Increment      1: Step Time =    1.000,"PART-1-1",          2155,  -20.0000E-03,  -100.000E-03,   950.000E-03,NA,NA,"",  -20.0000E-03,  -100.000E-03,   950.000E-03,   380.957E-03
C:/Users/touze/project/Shear_centre/strip/Job-1.odb,loading,Increment      1: Step Time =    1.000,"PART-1-1",          2154,  -20.0000E-03,  -50.0000E-03,   950.000E-03,NA,NA,"",  -20.0000E-03,  -50.0000E-03,   950.000E-03,   464.532E-03
C:/Users/touze/project/Shear_centre/strip/Job-1.odb,loading,Increment      1: Step Time =    1.000,"PART-1-1",          2153,  -20.0000E-03,            0.,   950.000E-03,NA,NA,"",  -20.0000E-03,            0.,   950.000E-03,   496.370E-03
C:/Users/touze/project/Shear_centre/strip/Job-1.odb,loading,Increment      1: Step Time =    1.000,"PART-1-1",          2152,  -20.0000E-03,   50.0000E-03,   950.000E-03,NA,NA,"",  -20.0000E-03,   50.0000E-03,   950.000E-03,   464.532E-03
C:/Users/touze/project/Shear_centre/strip/Job-1.odb,loading,Increment      1: Step Time =    1.000,"PART-1-1",          2151,  -20.0000E-03,   100.000E-03,   950.000E-03,NA,NA,"",  -20.0000E-03,   100.000E-03,   950.000E-03,   380.957E-03
C:/Users/touze/project/Shear_centre/strip/Job-1.odb,loading,Increment      1: Step Time =    1.000,"PART-1-1",          2150,  -20.0000E-03,   150.000E-03,   950.000E-03,NA,NA,"",  -20.0000E-03,   150.000E-03,   950.000E-03,   270.470E-03
C:/Users/touze/project/Shear_centre/strip/Job-1.odb,loading,Increment      1: Step Time =    1.000,"PART-1-1",          2149,  -20.0000E-03,   200.000E-03,   950.000E-03,NA,NA,"",  -20.0000E-03,   200.000E-03,   950.000E-03,   157.759E-03
C:/Users/touze/project/Shear_centre/strip/Job-1.odb,loading,Increment      1: Step Time =    1.000,"PART-1-1",          2148,  -20.0000E-03,      250.E-03,   950.000E-03,NA,NA,"",  -20.0000E-03,      250.E-03,   950.000E-03,   102.430E-03
C:/Users/touze/project/Shear_centre/strip/Job-1.odb,loading,Increment      1: Step Time =    1.000,"PART-1-1",          2147,  -20.0000E-03,   300.000E-03,   950.000E-03,NA,NA,"",  -20.0000E-03,   300.000E-03,   950.000E-03,   154.405E-03
C:/Users/touze/project/Shear_centre/strip/Job-1.odb,loading,Increment      1: Step Time =    1.000,"PART-1-1",          2146,  -20.0000E-03,   350.000E-03,   950.000E-03,NA,NA,"",  -20.0000E-03,   350.000E-03,   950.000E-03,   266.575E-03
C:/Users/touze/project/Shear_centre/strip/Job-1.odb,loading,Increment      1: Step Time =    1.000,"PART-1-1",          2145,  -20.0000E-03,   400.000E-03,   950.000E-03,NA,NA,"",  -20.0000E-03,   400.000E-03,   950.000E-03,   378.192E-03
C:/Users/touze/project/Shear_centre/strip/Job-1.odb,loading,Increment      1: Step Time =    1.000,"PART-1-1",          2144,  -20.0000E-03,   450.000E-03,   950.000E-03,NA,NA,"",  -20.0000E-03,   450.000E-03,   950.000E-03,   464.333E-03
C:/Users/touze/project/Shear_centre/strip/Job-1.odb,loading,Increment      1: Step Time =    1.000,"PART-1-1",          2143,  -20.0000E-03,      500.E-03,   950.000E-03,NA,NA,"",  -20.0000E-03,      500.E-03,   950.000E-03,   497.684E-03
C:/Users/touze/project/Shear_centre/strip/Job-1.odb,loading,Increment      1: Step Time =    1.000,"PART-1-1",          2163,  -20.0000E-03,     -500.E-03,   950.000E-03,NA,NA,"",  -20.0000E-03,     -500.E-03,   950.000E-03,   497.684E-03
C:/Users/touze/project/Shear_centre/strip/Job-1.odb,loading,Increment      1: Step Time =    1.000,"PART-1-1",           863,   20.0000E-03,   450.000E-03,   950.000E-03,NA,NA,"",   20.0000E-03,   450.000E-03,   950.000E-03,   464.333E-03
C:/Users/touze/project/Shear_centre/strip/Job-1.odb,loading,Increment      1: Step Time =    1.000,"PART-1-1",           864,   20.0000E-03,   400.000E-03,   950.000E-03,NA,NA,"",   20.0000E-03,   400.000E-03,   950.000E-03,   378.192E-03
C:/Users/touze/project/Shear_centre/strip/Job-1.odb,loading,Increment      1: Step Time =    1.000,"PART-1-1",           865,   20.0000E-03,   350.000E-03,   950.000E-03,NA,NA,"",   20.0000E-03,   350.000E-03,   950.000E-03,   266.575E-03
C:/Users/touze/project/Shear_centre/strip/Job-1.odb,loading,Increment      1: Step Time =    1.000,"PART-1-1",           866,   20.0000E-03,   300.000E-03,   950.000E-03,NA,NA,"",   20.0000E-03,   300.000E-03,   950.000E-03,   154.405E-03
C:/Users/touze/project/Shear_centre/strip/Job-1.odb,loading,Increment      1: Step Time =    1.000,"PART-1-1",           867,   20.0000E-03,      250.E-03,   950.000E-03,NA,NA,"",   20.0000E-03,      250.E-03,   950.000E-03,   102.430E-03
C:/Users/touze/project/Shear_centre/strip/Job-1.odb,loading,Increment      1: Step Time =    1.000,"PART-1-1",           868,   20.0000E-03,   200.000E-03,   950.000E-03,NA,NA,"",   20.0000E-03,   200.000E-03,   950.000E-03,   157.759E-03
C:/Users/touze/project/Shear_centre/strip/Job-1.odb,loading,Increment      1: Step Time =    1.000,"PART-1-1",           869,   20.0000E-03,   150.000E-03,   950.000E-03,NA,NA,"",   20.0000E-03,   150.000E-03,   950.000E-03,   270.470E-03
C:/Users/touze/project/Shear_centre/strip/Job-1.odb,loading,Increment      1: Step Time =    1.000,"PART-1-1",           870,   20.0000E-03,   100.000E-03,   950.000E-03,NA,NA,"",   20.0000E-03,   100.000E-03,   950.000E-03,   380.957E-03
C:/Users/touze/project/Shear_centre/strip/Job-1.odb,loading,Increment      1: Step Time =    1.000,"PART-1-1",           871,   20.0000E-03,   50.0000E-03,   950.000E-03,NA,NA,"",   20.0000E-03,   50.0000E-03,   950.000E-03,   464.532E-03
C:/Users/touze/project/Shear_centre/strip/Job-1.odb,loading,Increment      1: Step Time =    1.000,"PART-1-1",           872,   20.0000E-03,            0.,   950.000E-03,NA,NA,"",   20.0000E-03,            0.,   950.000E-03,   496.370E-03
C:/Users/touze/project/Shear_centre/strip/Job-1.odb,loading,Increment      1: Step Time =    1.000,"PART-1-1",           873,   20.0000E-03,  -50.0000E-03,   950.000E-03,NA,NA,"",   20.0000E-03,  -50.0000E-03,   950.000E-03,   464.532E-03
C:/Users/touze/project/Shear_centre/strip/Job-1.odb,loading,Increment      1: Step Time =    1.000,"PART-1-1",           874,   20.0000E-03,  -100.000E-03,   950.000E-03,NA,NA,"",   20.0000E-03,  -100.000E-03,   950.000E-03,   380.957E-03
C:/Users/touze/project/Shear_centre/strip/Job-1.odb,loading,Increment      1: Step Time =    1.000,"PART-1-1",           875,   20.0000E-03,  -150.000E-03,   950.000E-03,NA,NA,"",   20.0000E-03,  -150.000E-03,   950.000E-03,   270.470E-03
C:/Users/touze/project/Shear_centre/strip/Job-1.odb,loading,Increment      1: Step Time =    1.000,"PART-1-1",           876,   20.0000E-03,  -200.000E-03,   950.000E-03,NA,NA,"",   20.0000E-03,  -200.000E-03,   950.000E-03,   157.759E-03
C:/Users/touze/project/Shear_centre/strip/Job-1.odb,loading,Increment      1: Step Time =    1.000,"PART-1-1",           877,   20.0000E-03,     -250.E-03,   950.000E-03,NA,NA,"",   20.0000E-03,     -250.E-03,   950.000E-03,   102.430E-03
C:/Users/touze/project/Shear_centre/strip/Job-1.odb,loading,Increment      1: Step Time =    1.000,"PART-1-1",           878,   20.0000E-03,  -300.000E-03,   950.000E-03,NA,NA,"",   20.0000E-03,  -300.000E-03,   950.000E-03,   154.405E-03
C:/Users/touze/project/Shear_centre/strip/Job-1.odb,loading,Increment      1: Step Time =    1.000,"PART-1-1",           879,   20.0000E-03,  -350.000E-03,   950.000E-03,NA,NA,"",   20.0000E-03,  -350.000E-03,   950.000E-03,   266.575E-03
C:/Users/touze/project/Shear_centre/strip/Job-1.odb,loading,Increment      1: Step Time =    1.000,"PART-1-1",           880,   20.0000E-03,  -400.000E-03,   950.000E-03,NA,NA,"",   20.0000E-03,  -400.000E-03,   950.000E-03,   378.192E-03
C:/Users/touze/project/Shear_centre/strip/Job-1.odb,loading,Increment      1: Step Time =    1.000,"PART-1-1",           881,   20.0000E-03,  -450.000E-03,   950.000E-03,NA,NA,"",   20.0000E-03,  -450.000E-03,   950.000E-03,   464.333E-03
C:/Users/touze/project/Shear_centre/strip/Job-1.odb,loading,Increment      1: Step Time =    1.000,"PART-1-1",           862,   20.0000E-03,      500.E-03,   950.000E-03,NA,NA,"",   20.0000E-03,      500.E-03,   950.000E-03,   497.684E-03
C:/Users/touze/project/Shear_centre/strip/Job-1.odb,loading,Increment      1: Step Time =    1.000,"PART-1-1",           882,   20.0000E-03,     -500.E-03,   950.000E-03,NA,NA,"",   20.0000E-03,     -500.E-03,   950.000E-03,   497.684E-03
C:/Users/touze/project/Shear_centre/strip/Job-1.odb,loading,Increment      1: Step Time =    1.000,"PART-1-1",          2142,  -20.0000E-03,     -500.E-03,            1.,NA,NA,"",  -20.0000E-03,     -500.E-03,            1.,   481.260E-03
C:/Users/touze/project/Shear_centre/strip/Job-1.odb,loading,Increment      1: Step Time =    1.000,"PART-1-1",           842,   20.0000E-03,   450.000E-03,            1.,NA,NA,"",   20.0000E-03,   450.000E-03,            1.,   449.543E-03
C:/Users/touze/project/Shear_centre/strip/Job-1.odb,loading,Increment      1: Step Time =    1.000,"PART-1-1",           843,   20.0000E-03,   400.000E-03,            1.,NA,NA,"",   20.0000E-03,   400.000E-03,            1.,   367.095E-03
C:/Users/touze/project/Shear_centre/strip/Job-1.odb,loading,Increment      1: Step Time =    1.000,"PART-1-1",           844,   20.0000E-03,   350.000E-03,            1.,NA,NA,"",   20.0000E-03,   350.000E-03,            1.,   259.404E-03
C:/Users/touze/project/Shear_centre/strip/Job-1.odb,loading,Increment      1: Step Time =    1.000,"PART-1-1",           845,   20.0000E-03,   300.000E-03,            1.,NA,NA,"",   20.0000E-03,   300.000E-03,            1.,   150.780E-03
C:/Users/touze/project/Shear_centre/strip/Job-1.odb,loading,Increment      1: Step Time =    1.000,"PART-1-1",           846,   20.0000E-03,      250.E-03,            1.,NA,NA,"",   20.0000E-03,      250.E-03,            1.,   100.420E-03
C:/Users/touze/project/Shear_centre/strip/Job-1.odb,loading,Increment      1: Step Time =    1.000,"PART-1-1",           847,   20.0000E-03,   200.000E-03,            1.,NA,NA,"",   20.0000E-03,   200.000E-03,            1.,   153.982E-03
C:/Users/touze/project/Shear_centre/strip/Job-1.odb,loading,Increment      1: Step Time =    1.000,"PART-1-1",           848,   20.0000E-03,   150.000E-03,            1.,NA,NA,"",   20.0000E-03,   150.000E-03,            1.,   263.094E-03
C:/Users/touze/project/Shear_centre/strip/Job-1.odb,loading,Increment      1: Step Time =    1.000,"PART-1-1",           849,   20.0000E-03,   100.000E-03,            1.,NA,NA,"",   20.0000E-03,   100.000E-03,            1.,   369.685E-03
C:/Users/touze/project/Shear_centre/strip/Job-1.odb,loading,Increment      1: Step Time =    1.000,"PART-1-1",           850,   20.0000E-03,   50.0000E-03,            1.,NA,NA,"",   20.0000E-03,   50.0000E-03,            1.,   449.811E-03
C:/Users/touze/project/Shear_centre/strip/Job-1.odb,loading,Increment      1: Step Time =    1.000,"PART-1-1",           851,   20.0000E-03,            0.,            1.,NA,NA,"",   20.0000E-03,            0.,            1.,   480.200E-03
C:/Users/touze/project/Shear_centre/strip/Job-1.odb,loading,Increment      1: Step Time =    1.000,"PART-1-1",           852,   20.0000E-03,  -50.0000E-03,            1.,NA,NA,"",   20.0000E-03,  -50.0000E-03,            1.,   449.811E-03
C:/Users/touze/project/Shear_centre/strip/Job-1.odb,loading,Increment      1: Step Time =    1.000,"PART-1-1",           853,   20.0000E-03,  -100.000E-03,            1.,NA,NA,"",   20.0000E-03,  -100.000E-03,            1.,   369.685E-03
C:/Users/touze/project/Shear_centre/strip/Job-1.odb,loading,Increment      1: Step Time =    1.000,"PART-1-1",           854,   20.0000E-03,  -150.000E-03,            1.,NA,NA,"",   20.0000E-03,  -150.000E-03,            1.,   263.094E-03
C:/Users/touze/project/Shear_centre/strip/Job-1.odb,loading,Increment      1: Step Time =    1.000,"PART-1-1",           855,   20.0000E-03,  -200.000E-03,            1.,NA,NA,"",   20.0000E-03,  -200.000E-03,            1.,   153.982E-03
C:/Users/touze/project/Shear_centre/strip/Job-1.odb,loading,Increment      1: Step Time =    1.000,"PART-1-1",           856,   20.0000E-03,     -250.E-03,            1.,NA,NA,"",   20.0000E-03,     -250.E-03,            1.,   100.420E-03
C:/Users/touze/project/Shear_centre/strip/Job-1.odb,loading,Increment      1: Step Time =    1.000,"PART-1-1",           857,   20.0000E-03,  -300.000E-03,            1.,NA,NA,"",   20.0000E-03,  -300.000E-03,            1.,   150.780E-03
C:/Users/touze/project/Shear_centre/strip/Job-1.odb,loading,Increment      1: Step Time =    1.000,"PART-1-1",           858,   20.0000E-03,  -350.000E-03,            1.,NA,NA,"",   20.0000E-03,  -350.000E-03,            1.,   259.404E-03
C:/Users/touze/project/Shear_centre/strip/Job-1.odb,loading,Increment      1: Step Time =    1.000,"PART-1-1",           859,   20.0000E-03,  -400.000E-03,            1.,NA,NA,"",   20.0000E-03,  -400.000E-03,            1.,   367.095E-03
C:/Users/touze/project/Shear_centre/strip/Job-1.odb,loading,Increment      1: Step Time =    1.000,"PART-1-1",           860,   20.0000E-03,  -450.000E-03,            1.,NA,NA,"",   20.0000E-03,  -450.000E-03,            1.,   449.543E-03
C:/Users/touze/project/Shear_centre/strip/Job-1.odb,loading,Increment      1: Step Time =    1.000,"PART-1-1",           861,   20.0000E-03,     -500.E-03,            1.,NA,NA,"",   20.0000E-03,     -500.E-03,            1.,   481.260E-03
C:/Users/touze/project/Shear_centre/strip/Job-1.odb,loading,Increment      1: Step Time =    1.000,"PART-1-1",          2141,  -20.0000E-03,  -450.000E-03,            1.,NA,NA,"",  -20.0000E-03,  -450.000E-03,            1.,   449.543E-03
C:/Users/touze/project/Shear_centre/strip/Job-1.odb,loading,Increment      1: Step Time =    1.000,"PART-1-1",          2140,  -20.0000E-03,  -400.000E-03,            1.,NA,NA,"",  -20.0000E-03,  -400.000E-03,            1.,   367.095E-03
C:/Users/touze/project/Shear_centre/strip/Job-1.odb,loading,Increment      1: Step Time =    1.000,"PART-1-1",          2139,  -20.0000E-03,  -350.000E-03,            1.,NA,NA,"",  -20.0000E-03,  -350.000E-03,            1.,   259.404E-03
C:/Users/touze/project/Shear_centre/strip/Job-1.odb,loading,Increment      1: Step Time =    1.000,"PART-1-1",          2138,  -20.0000E-03,  -300.000E-03,            1.,NA,NA,"",  -20.0000E-03,  -300.000E-03,            1.,   150.780E-03
C:/Users/touze/project/Shear_centre/strip/Job-1.odb,loading,Increment      1: Step Time =    1.000,"PART-1-1",          2137,  -20.0000E-03,     -250.E-03,            1.,NA,NA,"",  -20.0000E-03,     -250.E-03,            1.,   100.420E-03
C:/Users/touze/project/Shear_centre/strip/Job-1.odb,loading,Increment      1: Step Time =    1.000,"PART-1-1",          2136,  -20.0000E-03,  -200.000E-03,            1.,NA,NA,"",  -20.0000E-03,  -200.000E-03,            1.,   153.982E-03
C:/Users/touze/project/Shear_centre/strip/Job-1.odb,loading,Increment      1: Step Time =    1.000,"PART-1-1",          2135,  -20.0000E-03,  -150.000E-03,            1.,NA,NA,"",  -20.0000E-03,  -150.000E-03,            1.,   263.094E-03
C:/Users/touze/project/Shear_centre/strip/Job-1.odb,loading,Increment      1: Step Time =    1.000,"PART-1-1",          2134,  -20.0000E-03,  -100.000E-03,            1.,NA,NA,"",  -20.0000E-03,  -100.000E-03,            1.,   369.685E-03
C:/Users/touze/project/Shear_centre/strip/Job-1.odb,loading,Increment      1: Step Time =    1.000,"PART-1-1",          2133,  -20.0000E-03,  -50.0000E-03,            1.,NA,NA,"",  -20.0000E-03,  -50.0000E-03,            1.,   449.811E-03
C:/Users/touze/project/Shear_centre/strip/Job-1.odb,loading,Increment      1: Step Time =    1.000,"PART-1-1",          2132,  -20.0000E-03,            0.,            1.,NA,NA,"",  -20.0000E-03,            0.,            1.,   480.200E-03
C:/Users/touze/project/Shear_centre/strip/Job-1.odb,loading,Increment      1: Step Time =    1.000,"PART-1-1",          2131,  -20.0000E-03,   50.0000E-03,            1.,NA,NA,"",  -20.0000E-03,   50.0000E-03,            1.,   449.811E-03
C:/Users/touze/project/Shear_centre/strip/Job-1.odb,loading,Increment      1: Step Time =    1.000,"PART-1-1",          2130,  -20.0000E-03,   100.000E-03,            1.,NA,NA,"",  -20.0000E-03,   100.000E-03,            1.,   369.685E-03
C:/Users/touze/project/Shear_centre/strip/Job-1.odb,loading,Increment      1: Step Time =    1.000,"PART-1-1",          2129,  -20.0000E-03,   150.000E-03,            1.,NA,NA,"",  -20.0000E-03,   150.000E-03,            1.,   263.094E-03
C:/Users/touze/project/Shear_centre/strip/Job-1.odb,loading,Increment      1: Step Time =    1.000,"PART-1-1",          2128,  -20.0000E-03,   200.000E-03,            1.,NA,NA,"",  -20.0000E-03,   200.000E-03,            1.,   153.982E-03
C:/Users/touze/project/Shear_centre/strip/Job-1.odb,loading,Increment      1: Step Time =    1.000,"PART-1-1",          2127,  -20.0000E-03,      250.E-03,            1.,NA,NA,"",  -20.0000E-03,      250.E-03,            1.,   100.420E-03
C:/Users/touze/project/Shear_centre/strip/Job-1.odb,loading,Increment      1: Step Time =    1.000,"PART-1-1",          2126,  -20.0000E-03,   300.000E-03,            1.,NA,NA,"",  -20.0000E-03,   300.000E-03,            1.,   150.780E-03
C:/Users/touze/project/Shear_centre/strip/Job-1.odb,loading,Increment      1: Step Time =    1.000,"PART-1-1",          2125,  -20.0000E-03,   350.000E-03,            1.,NA,NA,"",  -20.0000E-03,   350.000E-03,            1.,   259.404E-03
C:/Users/touze/project/Shear_centre/strip/Job-1.odb,loading,Increment      1: Step Time =    1.000,"PART-1-1",          2124,  -20.0000E-03,   400.000E-03,            1.,NA,NA,"",  -20.0000E-03,   400.000E-03,            1.,   367.095E-03
C:/Users/touze/project/Shear_centre/strip/Job-1.odb,loading,Increment      1: Step Time =    1.000,"PART-1-1",          2123,  -20.0000E-03,   450.000E-03,            1.,NA,NA,"",  -20.0000E-03,   450.000E-03,            1.,   449.543E-03
C:/Users/touze/project/Shear_centre/strip/Job-1.odb,loading,Increment      1: Step Time =    1.000,"PART-1-1",          2122,  -20.0000E-03,      500.E-03,            1.,NA,NA,"",  -20.0000E-03,      500.E-03,            1.,   481.260E-03
C:/Users/touze/project/Shear_centre/strip/Job-1.odb,loading,Increment      1: Step Time =    1.000,"PART-1-1",           841,   20.0000E-03,      500.E-03,            1.,NA,NA,"",   20.0000E-03,      500.E-03,            1.,   481.260E-03
C:/Users/touze/project/Shear_centre/strip/Job-1.odb,loading,Increment      1: Step Time =    1.000,"PART-1-1",           840,   20.0000E-03,     -500.E-03,       1.05000,NA,NA,"",   20.0000E-03,     -500.E-03,       1.05000,   465.181E-03
C:/Users/touze/project/Shear_centre/strip/Job-1.odb,loading,Increment      1: Step Time =    1.000,"PART-1-1",           839,   20.0000E-03,  -450.000E-03,       1.05000,NA,NA,"",   20.0000E-03,  -450.000E-03,       1.05000,   434.993E-03
C:/Users/touze/project/Shear_centre/strip/Job-1.odb,loading,Increment      1: Step Time =    1.000,"PART-1-1",           838,   20.0000E-03,  -400.000E-03,       1.05000,NA,NA,"",   20.0000E-03,  -400.000E-03,       1.05000,   356.096E-03
C:/Users/touze/project/Shear_centre/strip/Job-1.odb,loading,Increment      1: Step Time =    1.000,"PART-1-1",           837,   20.0000E-03,  -350.000E-03,       1.05000,NA,NA,"",   20.0000E-03,  -350.000E-03,       1.05000,   252.286E-03
C:/Users/touze/project/Shear_centre/strip/Job-1.odb,loading,Increment      1: Step Time =    1.000,"PART-1-1",           836,   20.0000E-03,  -300.000E-03,       1.05000,NA,NA,"",   20.0000E-03,  -300.000E-03,       1.05000,   147.196E-03
C:/Users/touze/project/Shear_centre/strip/Job-1.odb,loading,Increment      1: Step Time =    1.000,"PART-1-1",           835,   20.0000E-03,     -250.E-03,       1.05000,NA,NA,"",   20.0000E-03,     -250.E-03,       1.05000,   98.4432E-03
C:/Users/touze/project/Shear_centre/strip/Job-1.odb,loading,Increment      1: Step Time =    1.000,"PART-1-1",           834,   20.0000E-03,  -200.000E-03,       1.05000,NA,NA,"",   20.0000E-03,  -200.000E-03,       1.05000,   150.239E-03
C:/Users/touze/project/Shear_centre/strip/Job-1.odb,loading,Increment      1: Step Time =    1.000,"PART-1-1",           833,   20.0000E-03,  -150.000E-03,       1.05000,NA,NA,"",   20.0000E-03,  -150.000E-03,       1.05000,   255.778E-03
C:/Users/touze/project/Shear_centre/strip/Job-1.odb,loading,Increment      1: Step Time =    1.000,"PART-1-1",           832,   20.0000E-03,  -100.000E-03,       1.05000,NA,NA,"",   20.0000E-03,  -100.000E-03,       1.05000,   358.555E-03
C:/Users/touze/project/Shear_centre/strip/Job-1.odb,loading,Increment      1: Step Time =    1.000,"PART-1-1",           831,   20.0000E-03,  -50.0000E-03,       1.05000,NA,NA,"",   20.0000E-03,  -50.0000E-03,       1.05000,   435.343E-03
C:/Users/touze/project/Shear_centre/strip/Job-1.odb,loading,Increment      1: Step Time =    1.000,"PART-1-1",           830,   20.0000E-03,            0.,       1.05000,NA,NA,"",   20.0000E-03,            0.,       1.05000,   464.333E-03
C:/Users/touze/project/Shear_centre/strip/Job-1.odb,loading,Increment      1: Step Time =    1.000,"PART-1-1",           829,   20.0000E-03,   50.0000E-03,       1.05000,NA,NA,"",   20.0000E-03,   50.0000E-03,       1.05000,   435.343E-03
C:/Users/touze/project/Shear_centre/strip/Job-1.odb,loading,Increment      1: Step Time =    1.000,"PART-1-1",           828,   20.0000E-03,   100.000E-03,       1.05000,NA,NA,"",   20.0000E-03,   100.000E-03,       1.05000,   358.554E-03
C:/Users/touze/project/Shear_centre/strip/Job-1.odb,loading,Increment      1: Step Time =    1.000,"PART-1-1",           827,   20.0000E-03,   150.000E-03,       1.05000,NA,NA,"",   20.0000E-03,   150.000E-03,       1.05000,   255.778E-03
C:/Users/touze/project/Shear_centre/strip/Job-1.odb,loading,Increment      1: Step Time =    1.000,"PART-1-1",           826,   20.0000E-03,   200.000E-03,       1.05000,NA,NA,"",   20.0000E-03,   200.000E-03,       1.05000,   150.239E-03
C:/Users/touze/project/Shear_centre/strip/Job-1.odb,loading,Increment      1: Step Time =    1.000,"PART-1-1",           825,   20.0000E-03,      250.E-03,       1.05000,NA,NA,"",   20.0000E-03,      250.E-03,       1.05000,   98.4432E-03
C:/Users/touze/project/Shear_centre/strip/Job-1.odb,loading,Increment      1: Step Time =    1.000,"PART-1-1",           824,   20.0000E-03,   300.000E-03,       1.05000,NA,NA,"",   20.0000E-03,   300.000E-03,       1.05000,   147.196E-03
C:/Users/touze/project/Shear_centre/strip/Job-1.odb,loading,Increment      1: Step Time =    1.000,"PART-1-1",           823,   20.0000E-03,   350.000E-03,       1.05000,NA,NA,"",   20.0000E-03,   350.000E-03,       1.05000,   252.286E-03
C:/Users/touze/project/Shear_centre/strip/Job-1.odb,loading,Increment      1: Step Time =    1.000,"PART-1-1",           822,   20.0000E-03,   400.000E-03,       1.05000,NA,NA,"",   20.0000E-03,   400.000E-03,       1.05000,   356.096E-03
C:/Users/touze/project/Shear_centre/strip/Job-1.odb,loading,Increment      1: Step Time =    1.000,"PART-1-1",           821,   20.0000E-03,   450.000E-03,       1.05000,NA,NA,"",   20.0000E-03,   450.000E-03,       1.05000,   434.993E-03
C:/Users/touze/project/Shear_centre/strip/Job-1.odb,loading,Increment      1: Step Time =    1.000,"PART-1-1",           820,   20.0000E-03,      500.E-03,       1.05000,NA,NA,"",   20.0000E-03,      500.E-03,       1.05000,   465.181E-03
C:/Users/touze/project/Shear_centre/strip/Job-1.odb,loading,Increment      1: Step Time =    1.000,"PART-1-1",          2120,  -20.0000E-03,  -450.000E-03,       1.05000,NA,NA,"",  -20.0000E-03,  -450.000E-03,       1.05000,   434.993E-03
C:/Users/touze/project/Shear_centre/strip/Job-1.odb,loading,Increment      1: Step Time =    1.000,"PART-1-1",          2119,  -20.0000E-03,  -400.000E-03,       1.05000,NA,NA,"",  -20.0000E-03,  -400.000E-03,       1.05000,   356.096E-03
C:/Users/touze/project/Shear_centre/strip/Job-1.odb,loading,Increment      1: Step Time =    1.000,"PART-1-1",          2118,  -20.0000E-03,  -350.000E-03,       1.05000,NA,NA,"",  -20.0000E-03,  -350.000E-03,       1.05000,   252.286E-03
C:/Users/touze/project/Shear_centre/strip/Job-1.odb,loading,Increment      1: Step Time =    1.000,"PART-1-1",          2117,  -20.0000E-03,  -300.000E-03,       1.05000,NA,NA,"",  -20.0000E-03,  -300.000E-03,       1.05000,   147.196E-03
C:/Users/touze/project/Shear_centre/strip/Job-1.odb,loading,Increment      1: Step Time =    1.000,"PART-1-1",          2116,  -20.0000E-03,     -250.E-03,       1.05000,NA,NA,"",  -20.0000E-03,     -250.E-03,       1.05000,   98.4432E-03
C:/Users/touze/project/Shear_centre/strip/Job-1.odb,loading,Increment      1: Step Time =    1.000,"PART-1-1",          2115,  -20.0000E-03,  -200.000E-03,       1.05000,NA,NA,"",  -20.0000E-03,  -200.000E-03,       1.05000,   150.239E-03
C:/Users/touze/project/Shear_centre/strip/Job-1.odb,loading,Increment      1: Step Time =    1.000,"PART-1-1",          2114,  -20.0000E-03,  -150.000E-03,       1.05000,NA,NA,"",  -20.0000E-03,  -150.000E-03,       1.05000,   255.778E-03
C:/Users/touze/project/Shear_centre/strip/Job-1.odb,loading,Increment      1: Step Time =    1.000,"PART-1-1",          2113,  -20.0000E-03,  -100.000E-03,       1.05000,NA,NA,"",  -20.0000E-03,  -100.000E-03,       1.05000,   358.555E-03
C:/Users/touze/project/Shear_centre/strip/Job-1.odb,loading,Increment      1: Step Time =    1.000,"PART-1-1",          2112,  -20.0000E-03,  -50.0000E-03,       1.05000,NA,NA,"",  -20.0000E-03,  -50.0000E-03,       1.05000,   435.343E-03
C:/Users/touze/project/Shear_centre/strip/Job-1.odb,loading,Increment      1: Step Time =    1.000,"PART-1-1",          2111,  -20.0000E-03,            0.,       1.05000,NA,NA,"",  -20.0000E-03,            0.,       1.05000,   464.333E-03
C:/Users/touze/project/Shear_centre/strip/Job-1.odb,loading,Increment      1: Step Time =    1.000,"PART-1-1",          2110,  -20.0000E-03,   50.0000E-03,       1.05000,NA,NA,"",  -20.0000E-03,   50.0000E-03,       1.05000,   435.343E-03
C:/Users/touze/project/Shear_centre/strip/Job-1.odb,loading,Increment      1: Step Time =    1.000,"PART-1-1",          2109,  -20.0000E-03,   100.000E-03,       1.05000,NA,NA,"",  -20.0000E-03,   100.000E-03,       1.05000,   358.554E-03
C:/Users/touze/project/Shear_centre/strip/Job-1.odb,loading,Increment      1: Step Time =    1.000,"PART-1-1",          2108,  -20.0000E-03,   150.000E-03,       1.05000,NA,NA,"",  -20.0000E-03,   150.000E-03,       1.05000,   255.778E-03
C:/Users/touze/project/Shear_centre/strip/Job-1.odb,loading,Increment      1: Step Time =    1.000,"PART-1-1",          2107,  -20.0000E-03,   200.000E-03,       1.05000,NA,NA,"",  -20.0000E-03,   200.000E-03,       1.05000,   150.239E-03
C:/Users/touze/project/Shear_centre/strip/Job-1.odb,loading,Increment      1: Step Time =    1.000,"PART-1-1",          2106,  -20.0000E-03,      250.E-03,       1.05000,NA,NA,"",  -20.0000E-03,      250.E-03,       1.05000,   98.4432E-03
C:/Users/touze/project/Shear_centre/strip/Job-1.odb,loading,Increment      1: Step Time =    1.000,"PART-1-1",          2105,  -20.0000E-03,   300.000E-03,       1.05000,NA,NA,"",  -20.0000E-03,   300.000E-03,       1.05000,   147.196E-03
C:/Users/touze/project/Shear_centre/strip/Job-1.odb,loading,Increment      1: Step Time =    1.000,"PART-1-1",          2104,  -20.0000E-03,   350.000E-03,       1.05000,NA,NA,"",  -20.0000E-03,   350.000E-03,       1.05000,   252.286E-03
C:/Users/touze/project/Shear_centre/strip/Job-1.odb,loading,Increment      1: Step Time =    1.000,"PART-1-1",          2103,  -20.0000E-03,   400.000E-03,       1.05000,NA,NA,"",  -20.0000E-03,   400.000E-03,       1.05000,   356.096E-03
C:/Users/touze/project/Shear_centre/strip/Job-1.odb,loading,Increment      1: Step Time =    1.000,"PART-1-1",          2102,  -20.0000E-03,   450.000E-03,       1.05000,NA,NA,"",  -20.0000E-03,   450.000E-03,       1.05000,   434.993E-03
C:/Users/touze/project/Shear_centre/strip/Job-1.odb,loading,Increment      1: Step Time =    1.000,"PART-1-1",          2101,  -20.0000E-03,      500.E-03,       1.05000,NA,NA,"",  -20.0000E-03,      500.E-03,       1.05000,   465.181E-03
C:/Users/touze/project/Shear_centre/strip/Job-1.odb,loading,Increment      1: Step Time =    1.000,"PART-1-1",          2121,  -20.0000E-03,     -500.E-03,       1.05000,NA,NA,"",  -20.0000E-03,     -500.E-03,       1.05000,   465.181E-03
C:/Users/touze/project/Shear_centre/strip/Job-1.odb,loading,Increment      1: Step Time =    1.000,"PART-1-1",           799,   20.0000E-03,      500.E-03,       1.10000,NA,NA,"",   20.0000E-03,      500.E-03,       1.10000,   449.479E-03
C:/Users/touze/project/Shear_centre/strip/Job-1.odb,loading,Increment      1: Step Time =    1.000,"PART-1-1",          2081,  -20.0000E-03,   450.000E-03,       1.10000,NA,NA,"",  -20.0000E-03,   450.000E-03,       1.10000,   420.747E-03
C:/Users/touze/project/Shear_centre/strip/Job-1.odb,loading,Increment      1: Step Time =    1.000,"PART-1-1",          2082,  -20.0000E-03,   400.000E-03,       1.10000,NA,NA,"",  -20.0000E-03,   400.000E-03,       1.10000,   345.245E-03
C:/Users/touze/project/Shear_centre/strip/Job-1.odb,loading,Increment      1: Step Time =    1.000,"PART-1-1",          2083,  -20.0000E-03,   350.000E-03,       1.10000,NA,NA,"",  -20.0000E-03,   350.000E-03,       1.10000,   245.217E-03
C:/Users/touze/project/Shear_centre/strip/Job-1.odb,loading,Increment      1: Step Time =    1.000,"PART-1-1",          2084,  -20.0000E-03,   300.000E-03,       1.10000,NA,NA,"",  -20.0000E-03,   300.000E-03,       1.10000,   143.644E-03
C:/Users/touze/project/Shear_centre/strip/Job-1.odb,loading,Increment      1: Step Time =    1.000,"PART-1-1",          2085,  -20.0000E-03,      250.E-03,       1.10000,NA,NA,"",  -20.0000E-03,      250.E-03,       1.10000,   96.5007E-03
C:/Users/touze/project/Shear_centre/strip/Job-1.odb,loading,Increment      1: Step Time =    1.000,"PART-1-1",          2086,  -20.0000E-03,   200.000E-03,       1.10000,NA,NA,"",  -20.0000E-03,   200.000E-03,       1.10000,   146.536E-03
C:/Users/touze/project/Shear_centre/strip/Job-1.odb,loading,Increment      1: Step Time =    1.000,"PART-1-1",          2087,  -20.0000E-03,   150.000E-03,       1.10000,NA,NA,"",  -20.0000E-03,   150.000E-03,       1.10000,   248.520E-03
C:/Users/touze/project/Shear_centre/strip/Job-1.odb,loading,Increment      1: Step Time =    1.000,"PART-1-1",          2088,  -20.0000E-03,   100.000E-03,       1.10000,NA,NA,"",  -20.0000E-03,   100.000E-03,       1.10000,   347.561E-03
C:/Users/touze/project/Shear_centre/strip/Job-1.odb,loading,Increment      1: Step Time =    1.000,"PART-1-1",          2089,  -20.0000E-03,   50.0000E-03,       1.10000,NA,NA,"",  -20.0000E-03,   50.0000E-03,       1.10000,   421.163E-03
C:/Users/touze/project/Shear_centre/strip/Job-1.odb,loading,Increment      1: Step Time =    1.000,"PART-1-1",          2090,  -20.0000E-03,            0.,       1.10000,NA,NA,"",  -20.0000E-03,            0.,       1.10000,   448.845E-03
C:/Users/touze/project/Shear_centre/strip/Job-1.odb,loading,Increment      1: Step Time =    1.000,"PART-1-1",          2091,  -20.0000E-03,  -50.0000E-03,       1.10000,NA,NA,"",  -20.0000E-03,  -50.0000E-03,       1.10000,   421.163E-03
C:/Users/touze/project/Shear_centre/strip/Job-1.odb,loading,Increment      1: Step Time =    1.000,"PART-1-1",          2092,  -20.0000E-03,  -100.000E-03,       1.10000,NA,NA,"",  -20.0000E-03,  -100.000E-03,       1.10000,   347.561E-03
C:/Users/touze/project/Shear_centre/strip/Job-1.odb,loading,Increment      1: Step Time =    1.000,"PART-1-1",          2093,  -20.0000E-03,  -150.000E-03,       1.10000,NA,NA,"",  -20.0000E-03,  -150.000E-03,       1.10000,   248.520E-03
C:/Users/touze/project/Shear_centre/strip/Job-1.odb,loading,Increment      1: Step Time =    1.000,"PART-1-1",          2094,  -20.0000E-03,  -200.000E-03,       1.10000,NA,NA,"",  -20.0000E-03,  -200.000E-03,       1.10000,   146.536E-03
C:/Users/touze/project/Shear_centre/strip/Job-1.odb,loading,Increment      1: Step Time =    1.000,"PART-1-1",          2095,  -20.0000E-03,     -250.E-03,       1.10000,NA,NA,"",  -20.0000E-03,     -250.E-03,       1.10000,   96.5007E-03
C:/Users/touze/project/Shear_centre/strip/Job-1.odb,loading,Increment      1: Step Time =    1.000,"PART-1-1",          2096,  -20.0000E-03,  -300.000E-03,       1.10000,NA,NA,"",  -20.0000E-03,  -300.000E-03,       1.10000,   143.644E-03
C:/Users/touze/project/Shear_centre/strip/Job-1.odb,loading,Increment      1: Step Time =    1.000,"PART-1-1",          2097,  -20.0000E-03,  -350.000E-03,       1.10000,NA,NA,"",  -20.0000E-03,  -350.000E-03,       1.10000,   245.217E-03
C:/Users/touze/project/Shear_centre/strip/Job-1.odb,loading,Increment      1: Step Time =    1.000,"PART-1-1",          2098,  -20.0000E-03,  -400.000E-03,       1.10000,NA,NA,"",  -20.0000E-03,  -400.000E-03,       1.10000,   345.245E-03
C:/Users/touze/project/Shear_centre/strip/Job-1.odb,loading,Increment      1: Step Time =    1.000,"PART-1-1",          2099,  -20.0000E-03,  -450.000E-03,       1.10000,NA,NA,"",  -20.0000E-03,  -450.000E-03,       1.10000,   420.747E-03
C:/Users/touze/project/Shear_centre/strip/Job-1.odb,loading,Increment      1: Step Time =    1.000,"PART-1-1",          2100,  -20.0000E-03,     -500.E-03,       1.10000,NA,NA,"",  -20.0000E-03,     -500.E-03,       1.10000,   449.479E-03
C:/Users/touze/project/Shear_centre/strip/Job-1.odb,loading,Increment      1: Step Time =    1.000,"PART-1-1",           800,   20.0000E-03,   450.000E-03,       1.10000,NA,NA,"",   20.0000E-03,   450.000E-03,       1.10000,   420.747E-03
C:/Users/touze/project/Shear_centre/strip/Job-1.odb,loading,Increment      1: Step Time =    1.000,"PART-1-1",           801,   20.0000E-03,   400.000E-03,       1.10000,NA,NA,"",   20.0000E-03,   400.000E-03,       1.10000,   345.245E-03
C:/Users/touze/project/Shear_centre/strip/Job-1.odb,loading,Increment      1: Step Time =    1.000,"PART-1-1",           802,   20.0000E-03,   350.000E-03,       1.10000,NA,NA,"",   20.0000E-03,   350.000E-03,       1.10000,   245.217E-03
C:/Users/touze/project/Shear_centre/strip/Job-1.odb,loading,Increment      1: Step Time =    1.000,"PART-1-1",           803,   20.0000E-03,   300.000E-03,       1.10000,NA,NA,"",   20.0000E-03,   300.000E-03,       1.10000,   143.644E-03
C:/Users/touze/project/Shear_centre/strip/Job-1.odb,loading,Increment      1: Step Time =    1.000,"PART-1-1",           804,   20.0000E-03,      250.E-03,       1.10000,NA,NA,"",   20.0000E-03,      250.E-03,       1.10000,   96.5007E-03
C:/Users/touze/project/Shear_centre/strip/Job-1.odb,loading,Increment      1: Step Time =    1.000,"PART-1-1",           805,   20.0000E-03,   200.000E-03,       1.10000,NA,NA,"",   20.0000E-03,   200.000E-03,       1.10000,   146.536E-03
C:/Users/touze/project/Shear_centre/strip/Job-1.odb,loading,Increment      1: Step Time =    1.000,"PART-1-1",           806,   20.0000E-03,   150.000E-03,       1.10000,NA,NA,"",   20.0000E-03,   150.000E-03,       1.10000,   248.520E-03
C:/Users/touze/project/Shear_centre/strip/Job-1.odb,loading,Increment      1: Step Time =    1.000,"PART-1-1",           807,   20.0000E-03,   100.000E-03,       1.10000,NA,NA,"",   20.0000E-03,   100.000E-03,       1.10000,   347.561E-03
C:/Users/touze/project/Shear_centre/strip/Job-1.odb,loading,Increment      1: Step Time =    1.000,"PART-1-1",           808,   20.0000E-03,   50.0000E-03,       1.10000,NA,NA,"",   20.0000E-03,   50.0000E-03,       1.10000,   421.163E-03
C:/Users/touze/project/Shear_centre/strip/Job-1.odb,loading,Increment      1: Step Time =    1.000,"PART-1-1",           809,   20.0000E-03,            0.,       1.10000,NA,NA,"",   20.0000E-03,            0.,       1.10000,   448.845E-03
C:/Users/touze/project/Shear_centre/strip/Job-1.odb,loading,Increment      1: Step Time =    1.000,"PART-1-1",           810,   20.0000E-03,  -50.0000E-03,       1.10000,NA,NA,"",   20.0000E-03,  -50.0000E-03,       1.10000,   421.163E-03
C:/Users/touze/project/Shear_centre/strip/Job-1.odb,loading,Increment      1: Step Time =    1.000,"PART-1-1",           811,   20.0000E-03,  -100.000E-03,       1.10000,NA,NA,"",   20.0000E-03,  -100.000E-03,       1.10000,   347.561E-03
C:/Users/touze/project/Shear_centre/strip/Job-1.odb,loading,Increment      1: Step Time =    1.000,"PART-1-1",           812,   20.0000E-03,  -150.000E-03,       1.10000,NA,NA,"",   20.0000E-03,  -150.000E-03,       1.10000,   248.520E-03
C:/Users/touze/project/Shear_centre/strip/Job-1.odb,loading,Increment      1: Step Time =    1.000,"PART-1-1",           813,   20.0000E-03,  -200.000E-03,       1.10000,NA,NA,"",   20.0000E-03,  -200.000E-03,       1.10000,   146.536E-03
C:/Users/touze/project/Shear_centre/strip/Job-1.odb,loading,Increment      1: Step Time =    1.000,"PART-1-1",           814,   20.0000E-03,     -250.E-03,       1.10000,NA,NA,"",   20.0000E-03,     -250.E-03,       1.10000,   96.5007E-03
C:/Users/touze/project/Shear_centre/strip/Job-1.odb,loading,Increment      1: Step Time =    1.000,"PART-1-1",           815,   20.0000E-03,  -300.000E-03,       1.10000,NA,NA,"",   20.0000E-03,  -300.000E-03,       1.10000,   143.644E-03
C:/Users/touze/project/Shear_centre/strip/Job-1.odb,loading,Increment      1: Step Time =    1.000,"PART-1-1",           816,   20.0000E-03,  -350.000E-03,       1.10000,NA,NA,"",   20.0000E-03,  -350.000E-03,       1.10000,   245.217E-03
C:/Users/touze/project/Shear_centre/strip/Job-1.odb,loading,Increment      1: Step Time =    1.000,"PART-1-1",           817,   20.0000E-03,  -400.000E-03,       1.10000,NA,NA,"",   20.0000E-03,  -400.000E-03,       1.10000,   345.245E-03
C:/Users/touze/project/Shear_centre/strip/Job-1.odb,loading,Increment      1: Step Time =    1.000,"PART-1-1",           818,   20.0000E-03,  -450.000E-03,       1.10000,NA,NA,"",   20.0000E-03,  -450.000E-03,       1.10000,   420.747E-03
C:/Users/touze/project/Shear_centre/strip/Job-1.odb,loading,Increment      1: Step Time =    1.000,"PART-1-1",           819,   20.0000E-03,     -500.E-03,       1.10000,NA,NA,"",   20.0000E-03,     -500.E-03,       1.10000,   449.479E-03
C:/Users/touze/project/Shear_centre/strip/Job-1.odb,loading,Increment      1: Step Time =    1.000,"PART-1-1",          2080,  -20.0000E-03,      500.E-03,       1.10000,NA,NA,"",  -20.0000E-03,      500.E-03,       1.10000,   449.479E-03
C:/Users/touze/project/Shear_centre/strip/Job-1.odb,loading,Increment      1: Step Time =    1.000,"PART-1-1",          2078,  -20.0000E-03,  -450.000E-03,       1.15000,NA,NA,"",  -20.0000E-03,  -450.000E-03,       1.15000,   406.732E-03
C:/Users/touze/project/Shear_centre/strip/Job-1.odb,loading,Increment      1: Step Time =    1.000,"PART-1-1",          2076,  -20.0000E-03,  -350.000E-03,       1.15000,NA,NA,"",  -20.0000E-03,  -350.000E-03,       1.15000,   238.206E-03
C:/Users/touze/project/Shear_centre/strip/Job-1.odb,loading,Increment      1: Step Time =    1.000,"PART-1-1",          2075,  -20.0000E-03,  -300.000E-03,       1.15000,NA,NA,"",  -20.0000E-03,  -300.000E-03,       1.15000,   140.132E-03
C:/Users/touze/project/Shear_centre/strip/Job-1.odb,loading,Increment      1: Step Time =    1.000,"PART-1-1",          2074,  -20.0000E-03,     -250.E-03,       1.15000,NA,NA,"",  -20.0000E-03,     -250.E-03,       1.15000,   94.5916E-03
C:/Users/touze/project/Shear_centre/strip/Job-1.odb,loading,Increment      1: Step Time =    1.000,"PART-1-1",          2073,  -20.0000E-03,  -200.000E-03,       1.15000,NA,NA,"",  -20.0000E-03,  -200.000E-03,       1.15000,   142.868E-03
C:/Users/touze/project/Shear_centre/strip/Job-1.odb,loading,Increment      1: Step Time =    1.000,"PART-1-1",          2072,  -20.0000E-03,  -150.000E-03,       1.15000,NA,NA,"",  -20.0000E-03,  -150.000E-03,       1.15000,   241.323E-03
C:/Users/touze/project/Shear_centre/strip/Job-1.odb,loading,Increment      1: Step Time =    1.000,"PART-1-1",          2071,  -20.0000E-03,  -100.000E-03,       1.15000,NA,NA,"",  -20.0000E-03,  -100.000E-03,       1.15000,   336.705E-03
C:/Users/touze/project/Shear_centre/strip/Job-1.odb,loading,Increment      1: Step Time =    1.000,"PART-1-1",          2070,  -20.0000E-03,  -50.0000E-03,       1.15000,NA,NA,"",  -20.0000E-03,  -50.0000E-03,       1.15000,   407.220E-03
C:/Users/touze/project/Shear_centre/strip/Job-1.odb,loading,Increment      1: Step Time =    1.000,"PART-1-1",          2069,  -20.0000E-03,            0.,       1.15000,NA,NA,"",  -20.0000E-03,            0.,       1.15000,   433.637E-03
C:/Users/touze/project/Shear_centre/strip/Job-1.odb,loading,Increment      1: Step Time =    1.000,"PART-1-1",          2068,  -20.0000E-03,   50.0000E-03,       1.15000,NA,NA,"",  -20.0000E-03,   50.0000E-03,       1.15000,   407.220E-03
C:/Users/touze/project/Shear_centre/strip/Job-1.odb,loading,Increment      1: Step Time =    1.000,"PART-1-1",          2067,  -20.0000E-03,   100.000E-03,       1.15000,NA,NA,"",  -20.0000E-03,   100.000E-03,       1.15000,   336.705E-03
C:/Users/touze/project/Shear_centre/strip/Job-1.odb,loading,Increment      1: Step Time =    1.000,"PART-1-1",          2066,  -20.0000E-03,   150.000E-03,       1.15000,NA,NA,"",  -20.0000E-03,   150.000E-03,       1.15000,   241.323E-03
C:/Users/touze/project/Shear_centre/strip/Job-1.odb,loading,Increment      1: Step Time =    1.000,"PART-1-1",          2065,  -20.0000E-03,   200.000E-03,       1.15000,NA,NA,"",  -20.0000E-03,   200.000E-03,       1.15000,   142.868E-03
C:/Users/touze/project/Shear_centre/strip/Job-1.odb,loading,Increment      1: Step Time =    1.000,"PART-1-1",          2064,  -20.0000E-03,      250.E-03,       1.15000,NA,NA,"",  -20.0000E-03,      250.E-03,       1.15000,   94.5916E-03
C:/Users/touze/project/Shear_centre/strip/Job-1.odb,loading,Increment      1: Step Time =    1.000,"PART-1-1",          2063,  -20.0000E-03,   300.000E-03,       1.15000,NA,NA,"",  -20.0000E-03,   300.000E-03,       1.15000,   140.132E-03
C:/Users/touze/project/Shear_centre/strip/Job-1.odb,loading,Increment      1: Step Time =    1.000,"PART-1-1",          2062,  -20.0000E-03,   350.000E-03,       1.15000,NA,NA,"",  -20.0000E-03,   350.000E-03,       1.15000,   238.206E-03
C:/Users/touze/project/Shear_centre/strip/Job-1.odb,loading,Increment      1: Step Time =    1.000,"PART-1-1",          2061,  -20.0000E-03,   400.000E-03,       1.15000,NA,NA,"",  -20.0000E-03,   400.000E-03,       1.15000,   334.502E-03
C:/Users/touze/project/Shear_centre/strip/Job-1.odb,loading,Increment      1: Step Time =    1.000,"PART-1-1",          2060,  -20.0000E-03,   450.000E-03,       1.15000,NA,NA,"",  -20.0000E-03,   450.000E-03,       1.15000,   406.731E-03
C:/Users/touze/project/Shear_centre/strip/Job-1.odb,loading,Increment      1: Step Time =    1.000,"PART-1-1",          2059,  -20.0000E-03,      500.E-03,       1.15000,NA,NA,"",  -20.0000E-03,      500.E-03,       1.15000,   434.092E-03
C:/Users/touze/project/Shear_centre/strip/Job-1.odb,loading,Increment      1: Step Time =    1.000,"PART-1-1",          2079,  -20.0000E-03,     -500.E-03,       1.15000,NA,NA,"",  -20.0000E-03,     -500.E-03,       1.15000,   434.092E-03
C:/Users/touze/project/Shear_centre/strip/Job-1.odb,loading,Increment      1: Step Time =    1.000,"PART-1-1",           778,   20.0000E-03,      500.E-03,       1.15000,NA,NA,"",   20.0000E-03,      500.E-03,       1.15000,   434.092E-03
C:/Users/touze/project/Shear_centre/strip/Job-1.odb,loading,Increment      1: Step Time =    1.000,"PART-1-1",           779,   20.0000E-03,   450.000E-03,       1.15000,NA,NA,"",   20.0000E-03,   450.000E-03,       1.15000,   406.731E-03
C:/Users/touze/project/Shear_centre/strip/Job-1.odb,loading,Increment      1: Step Time =    1.000,"PART-1-1",           780,   20.0000E-03,   400.000E-03,       1.15000,NA,NA,"",   20.0000E-03,   400.000E-03,       1.15000,   334.502E-03
C:/Users/touze/project/Shear_centre/strip/Job-1.odb,loading,Increment      1: Step Time =    1.000,"PART-1-1",           781,   20.0000E-03,   350.000E-03,       1.15000,NA,NA,"",   20.0000E-03,   350.000E-03,       1.15000,   238.206E-03
C:/Users/touze/project/Shear_centre/strip/Job-1.odb,loading,Increment      1: Step Time =    1.000,"PART-1-1",           782,   20.0000E-03,   300.000E-03,       1.15000,NA,NA,"",   20.0000E-03,   300.000E-03,       1.15000,   140.132E-03
C:/Users/touze/project/Shear_centre/strip/Job-1.odb,loading,Increment      1: Step Time =    1.000,"PART-1-1",           783,   20.0000E-03,      250.E-03,       1.15000,NA,NA,"",   20.0000E-03,      250.E-03,       1.15000,   94.5916E-03
C:/Users/touze/project/Shear_centre/strip/Job-1.odb,loading,Increment      1: Step Time =    1.000,"PART-1-1",           784,   20.0000E-03,   200.000E-03,       1.15000,NA,NA,"",   20.0000E-03,   200.000E-03,       1.15000,   142.868E-03
C:/Users/touze/project/Shear_centre/strip/Job-1.odb,loading,Increment      1: Step Time =    1.000,"PART-1-1",           785,   20.0000E-03,   150.000E-03,       1.15000,NA,NA,"",   20.0000E-03,   150.000E-03,       1.15000,   241.323E-03
C:/Users/touze/project/Shear_centre/strip/Job-1.odb,loading,Increment      1: Step Time =    1.000,"PART-1-1",           786,   20.0000E-03,   100.000E-03,       1.15000,NA,NA,"",   20.0000E-03,   100.000E-03,       1.15000,   336.705E-03
C:/Users/touze/project/Shear_centre/strip/Job-1.odb,loading,Increment      1: Step Time =    1.000,"PART-1-1",           787,   20.0000E-03,   50.0000E-03,       1.15000,NA,NA,"",   20.0000E-03,   50.0000E-03,       1.15000,   407.220E-03
C:/Users/touze/project/Shear_centre/strip/Job-1.odb,loading,Increment      1: Step Time =    1.000,"PART-1-1",           788,   20.0000E-03,            0.,       1.15000,NA,NA,"",   20.0000E-03,            0.,       1.15000,   433.637E-03
C:/Users/touze/project/Shear_centre/strip/Job-1.odb,loading,Increment      1: Step Time =    1.000,"PART-1-1",           789,   20.0000E-03,  -50.0000E-03,       1.15000,NA,NA,"",   20.0000E-03,  -50.0000E-03,       1.15000,   407.220E-03
C:/Users/touze/project/Shear_centre/strip/Job-1.odb,loading,Increment      1: Step Time =    1.000,"PART-1-1",           790,   20.0000E-03,  -100.000E-03,       1.15000,NA,NA,"",   20.0000E-03,  -100.000E-03,       1.15000,   336.705E-03
C:/Users/touze/project/Shear_centre/strip/Job-1.odb,loading,Increment      1: Step Time =    1.000,"PART-1-1",           791,   20.0000E-03,  -150.000E-03,       1.15000,NA,NA,"",   20.0000E-03,  -150.000E-03,       1.15000,   241.323E-03
C:/Users/touze/project/Shear_centre/strip/Job-1.odb,loading,Increment      1: Step Time =    1.000,"PART-1-1",           792,   20.0000E-03,  -200.000E-03,       1.15000,NA,NA,"",   20.0000E-03,  -200.000E-03,       1.15000,   142.868E-03
C:/Users/touze/project/Shear_centre/strip/Job-1.odb,loading,Increment      1: Step Time =    1.000,"PART-1-1",           793,   20.0000E-03,     -250.E-03,       1.15000,NA,NA,"",   20.0000E-03,     -250.E-03,       1.15000,   94.5916E-03
C:/Users/touze/project/Shear_centre/strip/Job-1.odb,loading,Increment      1: Step Time =    1.000,"PART-1-1",           794,   20.0000E-03,  -300.000E-03,       1.15000,NA,NA,"",   20.0000E-03,  -300.000E-03,       1.15000,   140.132E-03
C:/Users/touze/project/Shear_centre/strip/Job-1.odb,loading,Increment      1: Step Time =    1.000,"PART-1-1",           795,   20.0000E-03,  -350.000E-03,       1.15000,NA,NA,"",   20.0000E-03,  -350.000E-03,       1.15000,   238.206E-03
C:/Users/touze/project/Shear_centre/strip/Job-1.odb,loading,Increment      1: Step Time =    1.000,"PART-1-1",           796,   20.0000E-03,  -400.000E-03,       1.15000,NA,NA,"",   20.0000E-03,  -400.000E-03,       1.15000,   334.502E-03
C:/Users/touze/project/Shear_centre/strip/Job-1.odb,loading,Increment      1: Step Time =    1.000,"PART-1-1",           797,   20.0000E-03,  -450.000E-03,       1.15000,NA,NA,"",   20.0000E-03,  -450.000E-03,       1.15000,   406.732E-03
C:/Users/touze/project/Shear_centre/strip/Job-1.odb,loading,Increment      1: Step Time =    1.000,"PART-1-1",           798,   20.0000E-03,     -500.E-03,       1.15000,NA,NA,"",   20.0000E-03,     -500.E-03,       1.15000,   434.092E-03
C:/Users/touze/project/Shear_centre/strip/Job-1.odb,loading,Increment      1: Step Time =    1.000,"PART-1-1",          2077,  -20.0000E-03,  -400.000E-03,       1.15000,NA,NA,"",  -20.0000E-03,  -400.000E-03,       1.15000,   334.502E-03
C:/Users/touze/project/Shear_centre/strip/Job-1.odb,loading,Increment      1: Step Time =    1.000,"PART-1-1",          2039,  -20.0000E-03,   450.000E-03,       1.20000,NA,NA,"",  -20.0000E-03,   450.000E-03,       1.20000,   392.989E-03
C:/Users/touze/project/Shear_centre/strip/Job-1.odb,loading,Increment      1: Step Time =    1.000,"PART-1-1",           757,   20.0000E-03,      500.E-03,       1.20000,NA,NA,"",   20.0000E-03,      500.E-03,       1.20000,   419.038E-03
C:/Users/touze/project/Shear_centre/strip/Job-1.odb,loading,Increment      1: Step Time =    1.000,"PART-1-1",          2040,  -20.0000E-03,   400.000E-03,       1.20000,NA,NA,"",  -20.0000E-03,   400.000E-03,       1.20000,   323.902E-03
C:/Users/touze/project/Shear_centre/strip/Job-1.odb,loading,Increment      1: Step Time =    1.000,"PART-1-1",          2041,  -20.0000E-03,   350.000E-03,       1.20000,NA,NA,"",  -20.0000E-03,   350.000E-03,       1.20000,   231.249E-03
C:/Users/touze/project/Shear_centre/strip/Job-1.odb,loading,Increment      1: Step Time =    1.000,"PART-1-1",          2042,  -20.0000E-03,   300.000E-03,       1.20000,NA,NA,"",  -20.0000E-03,   300.000E-03,       1.20000,   136.654E-03
C:/Users/touze/project/Shear_centre/strip/Job-1.odb,loading,Increment      1: Step Time =    1.000,"PART-1-1",          2043,  -20.0000E-03,      250.E-03,       1.20000,NA,NA,"",  -20.0000E-03,      250.E-03,       1.20000,   92.7179E-03
C:/Users/touze/project/Shear_centre/strip/Job-1.odb,loading,Increment      1: Step Time =    1.000,"PART-1-1",          2044,  -20.0000E-03,   200.000E-03,       1.20000,NA,NA,"",  -20.0000E-03,   200.000E-03,       1.20000,   139.241E-03
C:/Users/touze/project/Shear_centre/strip/Job-1.odb,loading,Increment      1: Step Time =    1.000,"PART-1-1",          2045,  -20.0000E-03,   150.000E-03,       1.20000,NA,NA,"",  -20.0000E-03,   150.000E-03,       1.20000,   234.188E-03
C:/Users/touze/project/Shear_centre/strip/Job-1.odb,loading,Increment      1: Step Time =    1.000,"PART-1-1",          2046,  -20.0000E-03,   100.000E-03,       1.20000,NA,NA,"",  -20.0000E-03,   100.000E-03,       1.20000,   325.985E-03
C:/Users/touze/project/Shear_centre/strip/Job-1.odb,loading,Increment      1: Step Time =    1.000,"PART-1-1",          2047,  -20.0000E-03,   50.0000E-03,       1.20000,NA,NA,"",  -20.0000E-03,   50.0000E-03,       1.20000,   393.540E-03
C:/Users/touze/project/Shear_centre/strip/Job-1.odb,loading,Increment      1: Step Time =    1.000,"PART-1-1",          2048,  -20.0000E-03,            0.,       1.20000,NA,NA,"",  -20.0000E-03,            0.,       1.20000,   418.767E-03
C:/Users/touze/project/Shear_centre/strip/Job-1.odb,loading,Increment      1: Step Time =    1.000,"PART-1-1",          2049,  -20.0000E-03,  -50.0000E-03,       1.20000,NA,NA,"",  -20.0000E-03,  -50.0000E-03,       1.20000,   393.540E-03
C:/Users/touze/project/Shear_centre/strip/Job-1.odb,loading,Increment      1: Step Time =    1.000,"PART-1-1",          2050,  -20.0000E-03,  -100.000E-03,       1.20000,NA,NA,"",  -20.0000E-03,  -100.000E-03,       1.20000,   325.985E-03
C:/Users/touze/project/Shear_centre/strip/Job-1.odb,loading,Increment      1: Step Time =    1.000,"PART-1-1",          2051,  -20.0000E-03,  -150.000E-03,       1.20000,NA,NA,"",  -20.0000E-03,  -150.000E-03,       1.20000,   234.188E-03
C:/Users/touze/project/Shear_centre/strip/Job-1.odb,loading,Increment      1: Step Time =    1.000,"PART-1-1",          2052,  -20.0000E-03,  -200.000E-03,       1.20000,NA,NA,"",  -20.0000E-03,  -200.000E-03,       1.20000,   139.241E-03
C:/Users/touze/project/Shear_centre/strip/Job-1.odb,loading,Increment      1: Step Time =    1.000,"PART-1-1",          2053,  -20.0000E-03,     -250.E-03,       1.20000,NA,NA,"",  -20.0000E-03,     -250.E-03,       1.20000,   92.7179E-03
C:/Users/touze/project/Shear_centre/strip/Job-1.odb,loading,Increment      1: Step Time =    1.000,"PART-1-1",          2054,  -20.0000E-03,  -300.000E-03,       1.20000,NA,NA,"",  -20.0000E-03,  -300.000E-03,       1.20000,   136.654E-03
C:/Users/touze/project/Shear_centre/strip/Job-1.odb,loading,Increment      1: Step Time =    1.000,"PART-1-1",          2055,  -20.0000E-03,  -350.000E-03,       1.20000,NA,NA,"",  -20.0000E-03,  -350.000E-03,       1.20000,   231.248E-03
C:/Users/touze/project/Shear_centre/strip/Job-1.odb,loading,Increment      1: Step Time =    1.000,"PART-1-1",          2056,  -20.0000E-03,  -400.000E-03,       1.20000,NA,NA,"",  -20.0000E-03,  -400.000E-03,       1.20000,   323.902E-03
C:/Users/touze/project/Shear_centre/strip/Job-1.odb,loading,Increment      1: Step Time =    1.000,"PART-1-1",          2057,  -20.0000E-03,  -450.000E-03,       1.20000,NA,NA,"",  -20.0000E-03,  -450.000E-03,       1.20000,   392.989E-03
C:/Users/touze/project/Shear_centre/strip/Job-1.odb,loading,Increment      1: Step Time =    1.000,"PART-1-1",          2058,  -20.0000E-03,     -500.E-03,       1.20000,NA,NA,"",  -20.0000E-03,     -500.E-03,       1.20000,   419.038E-03
C:/Users/touze/project/Shear_centre/strip/Job-1.odb,loading,Increment      1: Step Time =    1.000,"PART-1-1",          2038,  -20.0000E-03,      500.E-03,       1.20000,NA,NA,"",  -20.0000E-03,      500.E-03,       1.20000,   419.038E-03
C:/Users/touze/project/Shear_centre/strip/Job-1.odb,loading,Increment      1: Step Time =    1.000,"PART-1-1",           776,   20.0000E-03,  -450.000E-03,       1.20000,NA,NA,"",   20.0000E-03,  -450.000E-03,       1.20000,   392.989E-03
C:/Users/touze/project/Shear_centre/strip/Job-1.odb,loading,Increment      1: Step Time =    1.000,"PART-1-1",           775,   20.0000E-03,  -400.000E-03,       1.20000,NA,NA,"",   20.0000E-03,  -400.000E-03,       1.20000,   323.902E-03
C:/Users/touze/project/Shear_centre/strip/Job-1.odb,loading,Increment      1: Step Time =    1.000,"PART-1-1",           774,   20.0000E-03,  -350.000E-03,       1.20000,NA,NA,"",   20.0000E-03,  -350.000E-03,       1.20000,   231.248E-03
C:/Users/touze/project/Shear_centre/strip/Job-1.odb,loading,Increment      1: Step Time =    1.000,"PART-1-1",           773,   20.0000E-03,  -300.000E-03,       1.20000,NA,NA,"",   20.0000E-03,  -300.000E-03,       1.20000,   136.654E-03
C:/Users/touze/project/Shear_centre/strip/Job-1.odb,loading,Increment      1: Step Time =    1.000,"PART-1-1",           772,   20.0000E-03,     -250.E-03,       1.20000,NA,NA,"",   20.0000E-03,     -250.E-03,       1.20000,   92.7179E-03
C:/Users/touze/project/Shear_centre/strip/Job-1.odb,loading,Increment      1: Step Time =    1.000,"PART-1-1",           771,   20.0000E-03,  -200.000E-03,       1.20000,NA,NA,"",   20.0000E-03,  -200.000E-03,       1.20000,   139.241E-03
C:/Users/touze/project/Shear_centre/strip/Job-1.odb,loading,Increment      1: Step Time =    1.000,"PART-1-1",           770,   20.0000E-03,  -150.000E-03,       1.20000,NA,NA,"",   20.0000E-03,  -150.000E-03,       1.20000,   234.188E-03
C:/Users/touze/project/Shear_centre/strip/Job-1.odb,loading,Increment      1: Step Time =    1.000,"PART-1-1",           769,   20.0000E-03,  -100.000E-03,       1.20000,NA,NA,"",   20.0000E-03,  -100.000E-03,       1.20000,   325.985E-03
C:/Users/touze/project/Shear_centre/strip/Job-1.odb,loading,Increment      1: Step Time =    1.000,"PART-1-1",           768,   20.0000E-03,  -50.0000E-03,       1.20000,NA,NA,"",   20.0000E-03,  -50.0000E-03,       1.20000,   393.540E-03
C:/Users/touze/project/Shear_centre/strip/Job-1.odb,loading,Increment      1: Step Time =    1.000,"PART-1-1",           767,   20.0000E-03,            0.,       1.20000,NA,NA,"",   20.0000E-03,            0.,       1.20000,   418.767E-03
C:/Users/touze/project/Shear_centre/strip/Job-1.odb,loading,Increment      1: Step Time =    1.000,"PART-1-1",           766,   20.0000E-03,   50.0000E-03,       1.20000,NA,NA,"",   20.0000E-03,   50.0000E-03,       1.20000,   393.540E-03
C:/Users/touze/project/Shear_centre/strip/Job-1.odb,loading,Increment      1: Step Time =    1.000,"PART-1-1",           765,   20.0000E-03,   100.000E-03,       1.20000,NA,NA,"",   20.0000E-03,   100.000E-03,       1.20000,   325.985E-03
C:/Users/touze/project/Shear_centre/strip/Job-1.odb,loading,Increment      1: Step Time =    1.000,"PART-1-1",           764,   20.0000E-03,   150.000E-03,       1.20000,NA,NA,"",   20.0000E-03,   150.000E-03,       1.20000,   234.188E-03
C:/Users/touze/project/Shear_centre/strip/Job-1.odb,loading,Increment      1: Step Time =    1.000,"PART-1-1",           763,   20.0000E-03,   200.000E-03,       1.20000,NA,NA,"",   20.0000E-03,   200.000E-03,       1.20000,   139.241E-03
C:/Users/touze/project/Shear_centre/strip/Job-1.odb,loading,Increment      1: Step Time =    1.000,"PART-1-1",           762,   20.0000E-03,      250.E-03,       1.20000,NA,NA,"",   20.0000E-03,      250.E-03,       1.20000,   92.7179E-03
C:/Users/touze/project/Shear_centre/strip/Job-1.odb,loading,Increment      1: Step Time =    1.000,"PART-1-1",           761,   20.0000E-03,   300.000E-03,       1.20000,NA,NA,"",   20.0000E-03,   300.000E-03,       1.20000,   136.654E-03
C:/Users/touze/project/Shear_centre/strip/Job-1.odb,loading,Increment      1: Step Time =    1.000,"PART-1-1",           760,   20.0000E-03,   350.000E-03,       1.20000,NA,NA,"",   20.0000E-03,   350.000E-03,       1.20000,   231.249E-03
C:/Users/touze/project/Shear_centre/strip/Job-1.odb,loading,Increment      1: Step Time =    1.000,"PART-1-1",           759,   20.0000E-03,   400.000E-03,       1.20000,NA,NA,"",   20.0000E-03,   400.000E-03,       1.20000,   323.902E-03
C:/Users/touze/project/Shear_centre/strip/Job-1.odb,loading,Increment      1: Step Time =    1.000,"PART-1-1",           777,   20.0000E-03,     -500.E-03,       1.20000,NA,NA,"",   20.0000E-03,     -500.E-03,       1.20000,   419.038E-03
C:/Users/touze/project/Shear_centre/strip/Job-1.odb,loading,Increment      1: Step Time =    1.000,"PART-1-1",           758,   20.0000E-03,   450.000E-03,       1.20000,NA,NA,"",   20.0000E-03,   450.000E-03,       1.20000,   392.989E-03
C:/Users/touze/project/Shear_centre/strip/Job-1.odb,loading,Increment      1: Step Time =    1.000,"PART-1-1",          2037,  -20.0000E-03,     -500.E-03,          1.25,NA,NA,"",  -20.0000E-03,     -500.E-03,          1.25,   404.270E-03
C:/Users/touze/project/Shear_centre/strip/Job-1.odb,loading,Increment      1: Step Time =    1.000,"PART-1-1",          2036,  -20.0000E-03,  -450.000E-03,          1.25,NA,NA,"",  -20.0000E-03,  -450.000E-03,          1.25,   379.465E-03
C:/Users/touze/project/Shear_centre/strip/Job-1.odb,loading,Increment      1: Step Time =    1.000,"PART-1-1",          2035,  -20.0000E-03,  -400.000E-03,          1.25,NA,NA,"",  -20.0000E-03,  -400.000E-03,          1.25,   313.415E-03
C:/Users/touze/project/Shear_centre/strip/Job-1.odb,loading,Increment      1: Step Time =    1.000,"PART-1-1",          2034,  -20.0000E-03,  -350.000E-03,          1.25,NA,NA,"",  -20.0000E-03,  -350.000E-03,          1.25,   224.351E-03
C:/Users/touze/project/Shear_centre/strip/Job-1.odb,loading,Increment      1: Step Time =    1.000,"PART-1-1",          2033,  -20.0000E-03,  -300.000E-03,          1.25,NA,NA,"",  -20.0000E-03,  -300.000E-03,          1.25,   133.215E-03
C:/Users/touze/project/Shear_centre/strip/Job-1.odb,loading,Increment      1: Step Time =    1.000,"PART-1-1",          2032,  -20.0000E-03,     -250.E-03,          1.25,NA,NA,"",  -20.0000E-03,     -250.E-03,          1.25,   90.8782E-03
C:/Users/touze/project/Shear_centre/strip/Job-1.odb,loading,Increment      1: Step Time =    1.000,"PART-1-1",          2031,  -20.0000E-03,  -200.000E-03,          1.25,NA,NA,"",  -20.0000E-03,  -200.000E-03,          1.25,   135.652E-03
C:/Users/touze/project/Shear_centre/strip/Job-1.odb,loading,Increment      1: Step Time =    1.000,"PART-1-1",          2030,  -20.0000E-03,  -150.000E-03,          1.25,NA,NA,"",  -20.0000E-03,  -150.000E-03,          1.25,   227.117E-03
C:/Users/touze/project/Shear_centre/strip/Job-1.odb,loading,Increment      1: Step Time =    1.000,"PART-1-1",          2029,  -20.0000E-03,  -100.000E-03,          1.25,NA,NA,"",  -20.0000E-03,  -100.000E-03,          1.25,   315.399E-03
C:/Users/touze/project/Shear_centre/strip/Job-1.odb,loading,Increment      1: Step Time =    1.000,"PART-1-1",          2028,  -20.0000E-03,  -50.0000E-03,          1.25,NA,NA,"",  -20.0000E-03,  -50.0000E-03,          1.25,   380.082E-03
C:/Users/touze/project/Shear_centre/strip/Job-1.odb,loading,Increment      1: Step Time =    1.000,"PART-1-1",          2027,  -20.0000E-03,            0.,          1.25,NA,NA,"",  -20.0000E-03,            0.,          1.25,   404.157E-03
C:/Users/touze/project/Shear_centre/strip/Job-1.odb,loading,Increment      1: Step Time =    1.000,"PART-1-1",          2017,  -20.0000E-03,      500.E-03,          1.25,NA,NA,"",  -20.0000E-03,      500.E-03,          1.25,   404.270E-03
C:/Users/touze/project/Shear_centre/strip/Job-1.odb,loading,Increment      1: Step Time =    1.000,"PART-1-1",          2026,  -20.0000E-03,   50.0000E-03,          1.25,NA,NA,"",  -20.0000E-03,   50.0000E-03,          1.25,   380.082E-03
C:/Users/touze/project/Shear_centre/strip/Job-1.odb,loading,Increment      1: Step Time =    1.000,"PART-1-1",          2025,  -20.0000E-03,   100.000E-03,          1.25,NA,NA,"",  -20.0000E-03,   100.000E-03,          1.25,   315.399E-03
C:/Users/touze/project/Shear_centre/strip/Job-1.odb,loading,Increment      1: Step Time =    1.000,"PART-1-1",          2024,  -20.0000E-03,   150.000E-03,          1.25,NA,NA,"",  -20.0000E-03,   150.000E-03,          1.25,   227.117E-03
C:/Users/touze/project/Shear_centre/strip/Job-1.odb,loading,Increment      1: Step Time =    1.000,"PART-1-1",          2023,  -20.0000E-03,   200.000E-03,          1.25,NA,NA,"",  -20.0000E-03,   200.000E-03,          1.25,   135.652E-03
C:/Users/touze/project/Shear_centre/strip/Job-1.odb,loading,Increment      1: Step Time =    1.000,"PART-1-1",          2022,  -20.0000E-03,      250.E-03,          1.25,NA,NA,"",  -20.0000E-03,      250.E-03,          1.25,   90.8782E-03
C:/Users/touze/project/Shear_centre/strip/Job-1.odb,loading,Increment      1: Step Time =    1.000,"PART-1-1",          2021,  -20.0000E-03,   300.000E-03,          1.25,NA,NA,"",  -20.0000E-03,   300.000E-03,          1.25,   133.215E-03
C:/Users/touze/project/Shear_centre/strip/Job-1.odb,loading,Increment      1: Step Time =    1.000,"PART-1-1",          2020,  -20.0000E-03,   350.000E-03,          1.25,NA,NA,"",  -20.0000E-03,   350.000E-03,          1.25,   224.351E-03
C:/Users/touze/project/Shear_centre/strip/Job-1.odb,loading,Increment      1: Step Time =    1.000,"PART-1-1",          2019,  -20.0000E-03,   400.000E-03,          1.25,NA,NA,"",  -20.0000E-03,   400.000E-03,          1.25,   313.415E-03
C:/Users/touze/project/Shear_centre/strip/Job-1.odb,loading,Increment      1: Step Time =    1.000,"PART-1-1",           736,   20.0000E-03,      500.E-03,          1.25,NA,NA,"",   20.0000E-03,      500.E-03,          1.25,   404.270E-03
C:/Users/touze/project/Shear_centre/strip/Job-1.odb,loading,Increment      1: Step Time =    1.000,"PART-1-1",           738,   20.0000E-03,   400.000E-03,          1.25,NA,NA,"",   20.0000E-03,   400.000E-03,          1.25,   313.415E-03
C:/Users/touze/project/Shear_centre/strip/Job-1.odb,loading,Increment      1: Step Time =    1.000,"PART-1-1",           739,   20.0000E-03,   350.000E-03,          1.25,NA,NA,"",   20.0000E-03,   350.000E-03,          1.25,   224.351E-03
C:/Users/touze/project/Shear_centre/strip/Job-1.odb,loading,Increment      1: Step Time =    1.000,"PART-1-1",           740,   20.0000E-03,   300.000E-03,          1.25,NA,NA,"",   20.0000E-03,   300.000E-03,          1.25,   133.215E-03
C:/Users/touze/project/Shear_centre/strip/Job-1.odb,loading,Increment      1: Step Time =    1.000,"PART-1-1",           741,   20.0000E-03,      250.E-03,          1.25,NA,NA,"",   20.0000E-03,      250.E-03,          1.25,   90.8782E-03
C:/Users/touze/project/Shear_centre/strip/Job-1.odb,loading,Increment      1: Step Time =    1.000,"PART-1-1",           742,   20.0000E-03,   200.000E-03,          1.25,NA,NA,"",   20.0000E-03,   200.000E-03,          1.25,   135.652E-03
C:/Users/touze/project/Shear_centre/strip/Job-1.odb,loading,Increment      1: Step Time =    1.000,"PART-1-1",           743,   20.0000E-03,   150.000E-03,          1.25,NA,NA,"",   20.0000E-03,   150.000E-03,          1.25,   227.117E-03
C:/Users/touze/project/Shear_centre/strip/Job-1.odb,loading,Increment      1: Step Time =    1.000,"PART-1-1",           744,   20.0000E-03,   100.000E-03,          1.25,NA,NA,"",   20.0000E-03,   100.000E-03,          1.25,   315.399E-03
C:/Users/touze/project/Shear_centre/strip/Job-1.odb,loading,Increment      1: Step Time =    1.000,"PART-1-1",           745,   20.0000E-03,   50.0000E-03,          1.25,NA,NA,"",   20.0000E-03,   50.0000E-03,          1.25,   380.082E-03
C:/Users/touze/project/Shear_centre/strip/Job-1.odb,loading,Increment      1: Step Time =    1.000,"PART-1-1",           746,   20.0000E-03,            0.,          1.25,NA,NA,"",   20.0000E-03,            0.,          1.25,   404.157E-03
C:/Users/touze/project/Shear_centre/strip/Job-1.odb,loading,Increment      1: Step Time =    1.000,"PART-1-1",           747,   20.0000E-03,  -50.0000E-03,          1.25,NA,NA,"",   20.0000E-03,  -50.0000E-03,          1.25,   380.082E-03
C:/Users/touze/project/Shear_centre/strip/Job-1.odb,loading,Increment      1: Step Time =    1.000,"PART-1-1",           748,   20.0000E-03,  -100.000E-03,          1.25,NA,NA,"",   20.0000E-03,  -100.000E-03,          1.25,   315.399E-03
C:/Users/touze/project/Shear_centre/strip/Job-1.odb,loading,Increment      1: Step Time =    1.000,"PART-1-1",           749,   20.0000E-03,  -150.000E-03,          1.25,NA,NA,"",   20.0000E-03,  -150.000E-03,          1.25,   227.117E-03
C:/Users/touze/project/Shear_centre/strip/Job-1.odb,loading,Increment      1: Step Time =    1.000,"PART-1-1",           750,   20.0000E-03,  -200.000E-03,          1.25,NA,NA,"",   20.0000E-03,  -200.000E-03,          1.25,   135.652E-03
C:/Users/touze/project/Shear_centre/strip/Job-1.odb,loading,Increment      1: Step Time =    1.000,"PART-1-1",           751,   20.0000E-03,     -250.E-03,          1.25,NA,NA,"",   20.0000E-03,     -250.E-03,          1.25,   90.8782E-03
C:/Users/touze/project/Shear_centre/strip/Job-1.odb,loading,Increment      1: Step Time =    1.000,"PART-1-1",           752,   20.0000E-03,  -300.000E-03,          1.25,NA,NA,"",   20.0000E-03,  -300.000E-03,          1.25,   133.215E-03
C:/Users/touze/project/Shear_centre/strip/Job-1.odb,loading,Increment      1: Step Time =    1.000,"PART-1-1",           753,   20.0000E-03,  -350.000E-03,          1.25,NA,NA,"",   20.0000E-03,  -350.000E-03,          1.25,   224.351E-03
C:/Users/touze/project/Shear_centre/strip/Job-1.odb,loading,Increment      1: Step Time =    1.000,"PART-1-1",           754,   20.0000E-03,  -400.000E-03,          1.25,NA,NA,"",   20.0000E-03,  -400.000E-03,          1.25,   313.415E-03
C:/Users/touze/project/Shear_centre/strip/Job-1.odb,loading,Increment      1: Step Time =    1.000,"PART-1-1",           755,   20.0000E-03,  -450.000E-03,          1.25,NA,NA,"",   20.0000E-03,  -450.000E-03,          1.25,   379.465E-03
C:/Users/touze/project/Shear_centre/strip/Job-1.odb,loading,Increment      1: Step Time =    1.000,"PART-1-1",           756,   20.0000E-03,     -500.E-03,          1.25,NA,NA,"",   20.0000E-03,     -500.E-03,          1.25,   404.270E-03
C:/Users/touze/project/Shear_centre/strip/Job-1.odb,loading,Increment      1: Step Time =    1.000,"PART-1-1",          2018,  -20.0000E-03,   450.000E-03,          1.25,NA,NA,"",  -20.0000E-03,   450.000E-03,          1.25,   379.465E-03
C:/Users/touze/project/Shear_centre/strip/Job-1.odb,loading,Increment      1: Step Time =    1.000,"PART-1-1",           737,   20.0000E-03,   450.000E-03,          1.25,NA,NA,"",   20.0000E-03,   450.000E-03,          1.25,   379.465E-03
C:/Users/touze/project/Shear_centre/strip/Job-1.odb,loading,Increment      1: Step Time =    1.000,"PART-1-1",           716,   20.0000E-03,   450.000E-03,       1.30000,NA,NA,"",   20.0000E-03,   450.000E-03,       1.30000,   366.189E-03
C:/Users/touze/project/Shear_centre/strip/Job-1.odb,loading,Increment      1: Step Time =    1.000,"PART-1-1",           717,   20.0000E-03,   400.000E-03,       1.30000,NA,NA,"",   20.0000E-03,   400.000E-03,       1.30000,   303.065E-03
C:/Users/touze/project/Shear_centre/strip/Job-1.odb,loading,Increment      1: Step Time =    1.000,"PART-1-1",           718,   20.0000E-03,   350.000E-03,       1.30000,NA,NA,"",   20.0000E-03,   350.000E-03,       1.30000,   217.511E-03
C:/Users/touze/project/Shear_centre/strip/Job-1.odb,loading,Increment      1: Step Time =    1.000,"PART-1-1",           719,   20.0000E-03,   300.000E-03,       1.30000,NA,NA,"",   20.0000E-03,   300.000E-03,       1.30000,   129.813E-03
C:/Users/touze/project/Shear_centre/strip/Job-1.odb,loading,Increment      1: Step Time =    1.000,"PART-1-1",           720,   20.0000E-03,      250.E-03,       1.30000,NA,NA,"",   20.0000E-03,      250.E-03,       1.30000,   89.0748E-03
C:/Users/touze/project/Shear_centre/strip/Job-1.odb,loading,Increment      1: Step Time =    1.000,"PART-1-1",           721,   20.0000E-03,   200.000E-03,       1.30000,NA,NA,"",   20.0000E-03,   200.000E-03,       1.30000,   132.105E-03
C:/Users/touze/project/Shear_centre/strip/Job-1.odb,loading,Increment      1: Step Time =    1.000,"PART-1-1",           722,   20.0000E-03,   150.000E-03,       1.30000,NA,NA,"",   20.0000E-03,   150.000E-03,       1.30000,   220.111E-03
C:/Users/touze/project/Shear_centre/strip/Job-1.odb,loading,Increment      1: Step Time =    1.000,"PART-1-1",           723,   20.0000E-03,   100.000E-03,       1.30000,NA,NA,"",   20.0000E-03,   100.000E-03,       1.30000,   304.945E-03
C:/Users/touze/project/Shear_centre/strip/Job-1.odb,loading,Increment      1: Step Time =    1.000,"PART-1-1",           724,   20.0000E-03,   50.0000E-03,       1.30000,NA,NA,"",   20.0000E-03,   50.0000E-03,       1.30000,   366.865E-03
C:/Users/touze/project/Shear_centre/strip/Job-1.odb,loading,Increment      1: Step Time =    1.000,"PART-1-1",           725,   20.0000E-03,            0.,       1.30000,NA,NA,"",   20.0000E-03,            0.,       1.30000,   389.847E-03
C:/Users/touze/project/Shear_centre/strip/Job-1.odb,loading,Increment      1: Step Time =    1.000,"PART-1-1",           726,   20.0000E-03,  -50.0000E-03,       1.30000,NA,NA,"",   20.0000E-03,  -50.0000E-03,       1.30000,   366.865E-03
C:/Users/touze/project/Shear_centre/strip/Job-1.odb,loading,Increment      1: Step Time =    1.000,"PART-1-1",           728,   20.0000E-03,  -150.000E-03,       1.30000,NA,NA,"",   20.0000E-03,  -150.000E-03,       1.30000,   220.111E-03
C:/Users/touze/project/Shear_centre/strip/Job-1.odb,loading,Increment      1: Step Time =    1.000,"PART-1-1",           729,   20.0000E-03,  -200.000E-03,       1.30000,NA,NA,"",   20.0000E-03,  -200.000E-03,       1.30000,   132.105E-03
C:/Users/touze/project/Shear_centre/strip/Job-1.odb,loading,Increment      1: Step Time =    1.000,"PART-1-1",           730,   20.0000E-03,     -250.E-03,       1.30000,NA,NA,"",   20.0000E-03,     -250.E-03,       1.30000,   89.0748E-03
C:/Users/touze/project/Shear_centre/strip/Job-1.odb,loading,Increment      1: Step Time =    1.000,"PART-1-1",           731,   20.0000E-03,  -300.000E-03,       1.30000,NA,NA,"",   20.0000E-03,  -300.000E-03,       1.30000,   129.813E-03
C:/Users/touze/project/Shear_centre/strip/Job-1.odb,loading,Increment      1: Step Time =    1.000,"PART-1-1",           732,   20.0000E-03,  -350.000E-03,       1.30000,NA,NA,"",   20.0000E-03,  -350.000E-03,       1.30000,   217.511E-03
C:/Users/touze/project/Shear_centre/strip/Job-1.odb,loading,Increment      1: Step Time =    1.000,"PART-1-1",           733,   20.0000E-03,  -400.000E-03,       1.30000,NA,NA,"",   20.0000E-03,  -400.000E-03,       1.30000,   303.065E-03
C:/Users/touze/project/Shear_centre/strip/Job-1.odb,loading,Increment      1: Step Time =    1.000,"PART-1-1",           734,   20.0000E-03,  -450.000E-03,       1.30000,NA,NA,"",   20.0000E-03,  -450.000E-03,       1.30000,   366.189E-03
C:/Users/touze/project/Shear_centre/strip/Job-1.odb,loading,Increment      1: Step Time =    1.000,"PART-1-1",           735,   20.0000E-03,     -500.E-03,       1.30000,NA,NA,"",   20.0000E-03,     -500.E-03,       1.30000,   389.799E-03
C:/Users/touze/project/Shear_centre/strip/Job-1.odb,loading,Increment      1: Step Time =    1.000,"PART-1-1",          1996,  -20.0000E-03,      500.E-03,       1.30000,NA,NA,"",  -20.0000E-03,      500.E-03,       1.30000,   389.799E-03
C:/Users/touze/project/Shear_centre/strip/Job-1.odb,loading,Increment      1: Step Time =    1.000,"PART-1-1",           727,   20.0000E-03,  -100.000E-03,       1.30000,NA,NA,"",   20.0000E-03,  -100.000E-03,       1.30000,   304.945E-03
C:/Users/touze/project/Shear_centre/strip/Job-1.odb,loading,Increment      1: Step Time =    1.000,"PART-1-1",          2016,  -20.0000E-03,     -500.E-03,       1.30000,NA,NA,"",  -20.0000E-03,     -500.E-03,       1.30000,   389.799E-03
C:/Users/touze/project/Shear_centre/strip/Job-1.odb,loading,Increment      1: Step Time =    1.000,"PART-1-1",          2015,  -20.0000E-03,  -450.000E-03,       1.30000,NA,NA,"",  -20.0000E-03,  -450.000E-03,       1.30000,   366.189E-03
C:/Users/touze/project/Shear_centre/strip/Job-1.odb,loading,Increment      1: Step Time =    1.000,"PART-1-1",          2014,  -20.0000E-03,  -400.000E-03,       1.30000,NA,NA,"",  -20.0000E-03,  -400.000E-03,       1.30000,   303.065E-03
C:/Users/touze/project/Shear_centre/strip/Job-1.odb,loading,Increment      1: Step Time =    1.000,"PART-1-1",          2013,  -20.0000E-03,  -350.000E-03,       1.30000,NA,NA,"",  -20.0000E-03,  -350.000E-03,       1.30000,   217.511E-03
C:/Users/touze/project/Shear_centre/strip/Job-1.odb,loading,Increment      1: Step Time =    1.000,"PART-1-1",          2012,  -20.0000E-03,  -300.000E-03,       1.30000,NA,NA,"",  -20.0000E-03,  -300.000E-03,       1.30000,   129.813E-03
C:/Users/touze/project/Shear_centre/strip/Job-1.odb,loading,Increment      1: Step Time =    1.000,"PART-1-1",          2011,  -20.0000E-03,     -250.E-03,       1.30000,NA,NA,"",  -20.0000E-03,     -250.E-03,       1.30000,   89.0748E-03
C:/Users/touze/project/Shear_centre/strip/Job-1.odb,loading,Increment      1: Step Time =    1.000,"PART-1-1",          2010,  -20.0000E-03,  -200.000E-03,       1.30000,NA,NA,"",  -20.0000E-03,  -200.000E-03,       1.30000,   132.105E-03
C:/Users/touze/project/Shear_centre/strip/Job-1.odb,loading,Increment      1: Step Time =    1.000,"PART-1-1",          2009,  -20.0000E-03,  -150.000E-03,       1.30000,NA,NA,"",  -20.0000E-03,  -150.000E-03,       1.30000,   220.111E-03
C:/Users/touze/project/Shear_centre/strip/Job-1.odb,loading,Increment      1: Step Time =    1.000,"PART-1-1",          2008,  -20.0000E-03,  -100.000E-03,       1.30000,NA,NA,"",  -20.0000E-03,  -100.000E-03,       1.30000,   304.945E-03
C:/Users/touze/project/Shear_centre/strip/Job-1.odb,loading,Increment      1: Step Time =    1.000,"PART-1-1",          2007,  -20.0000E-03,  -50.0000E-03,       1.30000,NA,NA,"",  -20.0000E-03,  -50.0000E-03,       1.30000,   366.865E-03
C:/Users/touze/project/Shear_centre/strip/Job-1.odb,loading,Increment      1: Step Time =    1.000,"PART-1-1",          2006,  -20.0000E-03,            0.,       1.30000,NA,NA,"",  -20.0000E-03,            0.,       1.30000,   389.847E-03
C:/Users/touze/project/Shear_centre/strip/Job-1.odb,loading,Increment      1: Step Time =    1.000,"PART-1-1",          2005,  -20.0000E-03,   50.0000E-03,       1.30000,NA,NA,"",  -20.0000E-03,   50.0000E-03,       1.30000,   366.865E-03
C:/Users/touze/project/Shear_centre/strip/Job-1.odb,loading,Increment      1: Step Time =    1.000,"PART-1-1",          2004,  -20.0000E-03,   100.000E-03,       1.30000,NA,NA,"",  -20.0000E-03,   100.000E-03,       1.30000,   304.945E-03
C:/Users/touze/project/Shear_centre/strip/Job-1.odb,loading,Increment      1: Step Time =    1.000,"PART-1-1",          2003,  -20.0000E-03,   150.000E-03,       1.30000,NA,NA,"",  -20.0000E-03,   150.000E-03,       1.30000,   220.111E-03
C:/Users/touze/project/Shear_centre/strip/Job-1.odb,loading,Increment      1: Step Time =    1.000,"PART-1-1",          2002,  -20.0000E-03,   200.000E-03,       1.30000,NA,NA,"",  -20.0000E-03,   200.000E-03,       1.30000,   132.105E-03
C:/Users/touze/project/Shear_centre/strip/Job-1.odb,loading,Increment      1: Step Time =    1.000,"PART-1-1",          2001,  -20.0000E-03,      250.E-03,       1.30000,NA,NA,"",  -20.0000E-03,      250.E-03,       1.30000,   89.0748E-03
C:/Users/touze/project/Shear_centre/strip/Job-1.odb,loading,Increment      1: Step Time =    1.000,"PART-1-1",          2000,  -20.0000E-03,   300.000E-03,       1.30000,NA,NA,"",  -20.0000E-03,   300.000E-03,       1.30000,   129.813E-03
C:/Users/touze/project/Shear_centre/strip/Job-1.odb,loading,Increment      1: Step Time =    1.000,"PART-1-1",          1999,  -20.0000E-03,   350.000E-03,       1.30000,NA,NA,"",  -20.0000E-03,   350.000E-03,       1.30000,   217.511E-03
C:/Users/touze/project/Shear_centre/strip/Job-1.odb,loading,Increment      1: Step Time =    1.000,"PART-1-1",          1998,  -20.0000E-03,   400.000E-03,       1.30000,NA,NA,"",  -20.0000E-03,   400.000E-03,       1.30000,   303.065E-03
C:/Users/touze/project/Shear_centre/strip/Job-1.odb,loading,Increment      1: Step Time =    1.000,"PART-1-1",          1997,  -20.0000E-03,   450.000E-03,       1.30000,NA,NA,"",  -20.0000E-03,   450.000E-03,       1.30000,   366.189E-03
C:/Users/touze/project/Shear_centre/strip/Job-1.odb,loading,Increment      1: Step Time =    1.000,"PART-1-1",           715,   20.0000E-03,      500.E-03,       1.30000,NA,NA,"",   20.0000E-03,      500.E-03,       1.30000,   389.799E-03
C:/Users/touze/project/Shear_centre/strip/Job-1.odb,loading,Increment      1: Step Time =    1.000,"PART-1-1",           714,   20.0000E-03,     -500.E-03,       1.35000,NA,NA,"",   20.0000E-03,     -500.E-03,       1.35000,   375.588E-03
C:/Users/touze/project/Shear_centre/strip/Job-1.odb,loading,Increment      1: Step Time =    1.000,"PART-1-1",           712,   20.0000E-03,  -400.000E-03,       1.35000,NA,NA,"",   20.0000E-03,  -400.000E-03,       1.35000,   292.829E-03
C:/Users/touze/project/Shear_centre/strip/Job-1.odb,loading,Increment      1: Step Time =    1.000,"PART-1-1",           711,   20.0000E-03,  -350.000E-03,       1.35000,NA,NA,"",   20.0000E-03,  -350.000E-03,       1.35000,   210.734E-03
C:/Users/touze/project/Shear_centre/strip/Job-1.odb,loading,Increment      1: Step Time =    1.000,"PART-1-1",           710,   20.0000E-03,  -300.000E-03,       1.35000,NA,NA,"",   20.0000E-03,  -300.000E-03,       1.35000,   126.451E-03
C:/Users/touze/project/Shear_centre/strip/Job-1.odb,loading,Increment      1: Step Time =    1.000,"PART-1-1",           709,   20.0000E-03,     -250.E-03,       1.35000,NA,NA,"",   20.0000E-03,     -250.E-03,       1.35000,   87.3064E-03
C:/Users/touze/project/Shear_centre/strip/Job-1.odb,loading,Increment      1: Step Time =    1.000,"PART-1-1",           708,   20.0000E-03,  -200.000E-03,       1.35000,NA,NA,"",   20.0000E-03,  -200.000E-03,       1.35000,   128.598E-03
C:/Users/touze/project/Shear_centre/strip/Job-1.odb,loading,Increment      1: Step Time =    1.000,"PART-1-1",           707,   20.0000E-03,  -150.000E-03,       1.35000,NA,NA,"",   20.0000E-03,  -150.000E-03,       1.35000,   213.169E-03
C:/Users/touze/project/Shear_centre/strip/Job-1.odb,loading,Increment      1: Step Time =    1.000,"PART-1-1",           706,   20.0000E-03,  -100.000E-03,       1.35000,NA,NA,"",   20.0000E-03,  -100.000E-03,       1.35000,   294.620E-03
C:/Users/touze/project/Shear_centre/strip/Job-1.odb,loading,Increment      1: Step Time =    1.000,"PART-1-1",           705,   20.0000E-03,  -50.0000E-03,       1.35000,NA,NA,"",   20.0000E-03,  -50.0000E-03,       1.35000,   353.854E-03
C:/Users/touze/project/Shear_centre/strip/Job-1.odb,loading,Increment      1: Step Time =    1.000,"PART-1-1",           704,   20.0000E-03,            0.,       1.35000,NA,NA,"",   20.0000E-03,            0.,       1.35000,   375.777E-03
C:/Users/touze/project/Shear_centre/strip/Job-1.odb,loading,Increment      1: Step Time =    1.000,"PART-1-1",           703,   20.0000E-03,   50.0000E-03,       1.35000,NA,NA,"",   20.0000E-03,   50.0000E-03,       1.35000,   353.854E-03
C:/Users/touze/project/Shear_centre/strip/Job-1.odb,loading,Increment      1: Step Time =    1.000,"PART-1-1",           702,   20.0000E-03,   100.000E-03,       1.35000,NA,NA,"",   20.0000E-03,   100.000E-03,       1.35000,   294.620E-03
C:/Users/touze/project/Shear_centre/strip/Job-1.odb,loading,Increment      1: Step Time =    1.000,"PART-1-1",           701,   20.0000E-03,   150.000E-03,       1.35000,NA,NA,"",   20.0000E-03,   150.000E-03,       1.35000,   213.169E-03
C:/Users/touze/project/Shear_centre/strip/Job-1.odb,loading,Increment      1: Step Time =    1.000,"PART-1-1",           700,   20.0000E-03,   200.000E-03,       1.35000,NA,NA,"",   20.0000E-03,   200.000E-03,       1.35000,   128.598E-03
C:/Users/touze/project/Shear_centre/strip/Job-1.odb,loading,Increment      1: Step Time =    1.000,"PART-1-1",           699,   20.0000E-03,      250.E-03,       1.35000,NA,NA,"",   20.0000E-03,      250.E-03,       1.35000,   87.3064E-03
C:/Users/touze/project/Shear_centre/strip/Job-1.odb,loading,Increment      1: Step Time =    1.000,"PART-1-1",           698,   20.0000E-03,   300.000E-03,       1.35000,NA,NA,"",   20.0000E-03,   300.000E-03,       1.35000,   126.451E-03
C:/Users/touze/project/Shear_centre/strip/Job-1.odb,loading,Increment      1: Step Time =    1.000,"PART-1-1",           697,   20.0000E-03,   350.000E-03,       1.35000,NA,NA,"",   20.0000E-03,   350.000E-03,       1.35000,   210.734E-03
C:/Users/touze/project/Shear_centre/strip/Job-1.odb,loading,Increment      1: Step Time =    1.000,"PART-1-1",           696,   20.0000E-03,   400.000E-03,       1.35000,NA,NA,"",   20.0000E-03,   400.000E-03,       1.35000,   292.829E-03
C:/Users/touze/project/Shear_centre/strip/Job-1.odb,loading,Increment      1: Step Time =    1.000,"PART-1-1",           695,   20.0000E-03,   450.000E-03,       1.35000,NA,NA,"",   20.0000E-03,   450.000E-03,       1.35000,   353.118E-03
C:/Users/touze/project/Shear_centre/strip/Job-1.odb,loading,Increment      1: Step Time =    1.000,"PART-1-1",           694,   20.0000E-03,      500.E-03,       1.35000,NA,NA,"",   20.0000E-03,      500.E-03,       1.35000,   375.588E-03
C:/Users/touze/project/Shear_centre/strip/Job-1.odb,loading,Increment      1: Step Time =    1.000,"PART-1-1",          1995,  -20.0000E-03,     -500.E-03,       1.35000,NA,NA,"",  -20.0000E-03,     -500.E-03,       1.35000,   375.588E-03
C:/Users/touze/project/Shear_centre/strip/Job-1.odb,loading,Increment      1: Step Time =    1.000,"PART-1-1",          1994,  -20.0000E-03,  -450.000E-03,       1.35000,NA,NA,"",  -20.0000E-03,  -450.000E-03,       1.35000,   353.118E-03
C:/Users/touze/project/Shear_centre/strip/Job-1.odb,loading,Increment      1: Step Time =    1.000,"PART-1-1",          1993,  -20.0000E-03,  -400.000E-03,       1.35000,NA,NA,"",  -20.0000E-03,  -400.000E-03,       1.35000,   292.829E-03
C:/Users/touze/project/Shear_centre/strip/Job-1.odb,loading,Increment      1: Step Time =    1.000,"PART-1-1",          1992,  -20.0000E-03,  -350.000E-03,       1.35000,NA,NA,"",  -20.0000E-03,  -350.000E-03,       1.35000,   210.734E-03
C:/Users/touze/project/Shear_centre/strip/Job-1.odb,loading,Increment      1: Step Time =    1.000,"PART-1-1",          1991,  -20.0000E-03,  -300.000E-03,       1.35000,NA,NA,"",  -20.0000E-03,  -300.000E-03,       1.35000,   126.451E-03
C:/Users/touze/project/Shear_centre/strip/Job-1.odb,loading,Increment      1: Step Time =    1.000,"PART-1-1",          1990,  -20.0000E-03,     -250.E-03,       1.35000,NA,NA,"",  -20.0000E-03,     -250.E-03,       1.35000,   87.3064E-03
C:/Users/touze/project/Shear_centre/strip/Job-1.odb,loading,Increment      1: Step Time =    1.000,"PART-1-1",          1989,  -20.0000E-03,  -200.000E-03,       1.35000,NA,NA,"",  -20.0000E-03,  -200.000E-03,       1.35000,   128.598E-03
C:/Users/touze/project/Shear_centre/strip/Job-1.odb,loading,Increment      1: Step Time =    1.000,"PART-1-1",          1988,  -20.0000E-03,  -150.000E-03,       1.35000,NA,NA,"",  -20.0000E-03,  -150.000E-03,       1.35000,   213.169E-03
C:/Users/touze/project/Shear_centre/strip/Job-1.odb,loading,Increment      1: Step Time =    1.000,"PART-1-1",          1987,  -20.0000E-03,  -100.000E-03,       1.35000,NA,NA,"",  -20.0000E-03,  -100.000E-03,       1.35000,   294.620E-03
C:/Users/touze/project/Shear_centre/strip/Job-1.odb,loading,Increment      1: Step Time =    1.000,"PART-1-1",          1986,  -20.0000E-03,  -50.0000E-03,       1.35000,NA,NA,"",  -20.0000E-03,  -50.0000E-03,       1.35000,   353.854E-03
C:/Users/touze/project/Shear_centre/strip/Job-1.odb,loading,Increment      1: Step Time =    1.000,"PART-1-1",          1985,  -20.0000E-03,            0.,       1.35000,NA,NA,"",  -20.0000E-03,            0.,       1.35000,   375.777E-03
C:/Users/touze/project/Shear_centre/strip/Job-1.odb,loading,Increment      1: Step Time =    1.000,"PART-1-1",          1984,  -20.0000E-03,   50.0000E-03,       1.35000,NA,NA,"",  -20.0000E-03,   50.0000E-03,       1.35000,   353.854E-03
C:/Users/touze/project/Shear_centre/strip/Job-1.odb,loading,Increment      1: Step Time =    1.000,"PART-1-1",          1983,  -20.0000E-03,   100.000E-03,       1.35000,NA,NA,"",  -20.0000E-03,   100.000E-03,       1.35000,   294.620E-03
C:/Users/touze/project/Shear_centre/strip/Job-1.odb,loading,Increment      1: Step Time =    1.000,"PART-1-1",          1982,  -20.0000E-03,   150.000E-03,       1.35000,NA,NA,"",  -20.0000E-03,   150.000E-03,       1.35000,   213.169E-03
C:/Users/touze/project/Shear_centre/strip/Job-1.odb,loading,Increment      1: Step Time =    1.000,"PART-1-1",          1981,  -20.0000E-03,   200.000E-03,       1.35000,NA,NA,"",  -20.0000E-03,   200.000E-03,       1.35000,   128.598E-03
C:/Users/touze/project/Shear_centre/strip/Job-1.odb,loading,Increment      1: Step Time =    1.000,"PART-1-1",          1980,  -20.0000E-03,      250.E-03,       1.35000,NA,NA,"",  -20.0000E-03,      250.E-03,       1.35000,   87.3064E-03
C:/Users/touze/project/Shear_centre/strip/Job-1.odb,loading,Increment      1: Step Time =    1.000,"PART-1-1",          1979,  -20.0000E-03,   300.000E-03,       1.35000,NA,NA,"",  -20.0000E-03,   300.000E-03,       1.35000,   126.451E-03
C:/Users/touze/project/Shear_centre/strip/Job-1.odb,loading,Increment      1: Step Time =    1.000,"PART-1-1",          1978,  -20.0000E-03,   350.000E-03,       1.35000,NA,NA,"",  -20.0000E-03,   350.000E-03,       1.35000,   210.734E-03
C:/Users/touze/project/Shear_centre/strip/Job-1.odb,loading,Increment      1: Step Time =    1.000,"PART-1-1",          1977,  -20.0000E-03,   400.000E-03,       1.35000,NA,NA,"",  -20.0000E-03,   400.000E-03,       1.35000,   292.829E-03
C:/Users/touze/project/Shear_centre/strip/Job-1.odb,loading,Increment      1: Step Time =    1.000,"PART-1-1",          1976,  -20.0000E-03,   450.000E-03,       1.35000,NA,NA,"",  -20.0000E-03,   450.000E-03,       1.35000,   353.118E-03
C:/Users/touze/project/Shear_centre/strip/Job-1.odb,loading,Increment      1: Step Time =    1.000,"PART-1-1",          1975,  -20.0000E-03,      500.E-03,       1.35000,NA,NA,"",  -20.0000E-03,      500.E-03,       1.35000,   375.588E-03
C:/Users/touze/project/Shear_centre/strip/Job-1.odb,loading,Increment      1: Step Time =    1.000,"PART-1-1",           713,   20.0000E-03,  -450.000E-03,       1.35000,NA,NA,"",   20.0000E-03,  -450.000E-03,       1.35000,   353.118E-03
C:/Users/touze/project/Shear_centre/strip/Job-1.odb,loading,Increment      1: Step Time =    1.000,"PART-1-1",          1974,  -20.0000E-03,     -500.E-03,       1.40000,NA,NA,"",  -20.0000E-03,     -500.E-03,       1.40000,   361.643E-03
C:/Users/touze/project/Shear_centre/strip/Job-1.odb,loading,Increment      1: Step Time =    1.000,"PART-1-1",          1972,  -20.0000E-03,  -400.000E-03,       1.40000,NA,NA,"",  -20.0000E-03,  -400.000E-03,       1.40000,   282.724E-03
C:/Users/touze/project/Shear_centre/strip/Job-1.odb,loading,Increment      1: Step Time =    1.000,"PART-1-1",          1971,  -20.0000E-03,  -350.000E-03,       1.40000,NA,NA,"",  -20.0000E-03,  -350.000E-03,       1.40000,   204.018E-03
C:/Users/touze/project/Shear_centre/strip/Job-1.odb,loading,Increment      1: Step Time =    1.000,"PART-1-1",          1970,  -20.0000E-03,  -300.000E-03,       1.40000,NA,NA,"",  -20.0000E-03,  -300.000E-03,       1.40000,   123.129E-03
C:/Users/touze/project/Shear_centre/strip/Job-1.odb,loading,Increment      1: Step Time =    1.000,"PART-1-1",          1969,  -20.0000E-03,     -250.E-03,       1.40000,NA,NA,"",  -20.0000E-03,     -250.E-03,       1.40000,   85.5753E-03
C:/Users/touze/project/Shear_centre/strip/Job-1.odb,loading,Increment      1: Step Time =    1.000,"PART-1-1",          1968,  -20.0000E-03,  -200.000E-03,       1.40000,NA,NA,"",  -20.0000E-03,  -200.000E-03,       1.40000,   125.135E-03
C:/Users/touze/project/Shear_centre/strip/Job-1.odb,loading,Increment      1: Step Time =    1.000,"PART-1-1",          1967,  -20.0000E-03,  -150.000E-03,       1.40000,NA,NA,"",  -20.0000E-03,  -150.000E-03,       1.40000,   206.296E-03
C:/Users/touze/project/Shear_centre/strip/Job-1.odb,loading,Increment      1: Step Time =    1.000,"PART-1-1",          1966,  -20.0000E-03,  -100.000E-03,       1.40000,NA,NA,"",  -20.0000E-03,  -100.000E-03,       1.40000,   284.424E-03
C:/Users/touze/project/Shear_centre/strip/Job-1.odb,loading,Increment      1: Step Time =    1.000,"PART-1-1",          1965,  -20.0000E-03,  -50.0000E-03,       1.40000,NA,NA,"",  -20.0000E-03,  -50.0000E-03,       1.40000,   341.063E-03
C:/Users/touze/project/Shear_centre/strip/Job-1.odb,loading,Increment      1: Step Time =    1.000,"PART-1-1",          1964,  -20.0000E-03,            0.,       1.40000,NA,NA,"",  -20.0000E-03,            0.,       1.40000,   361.977E-03
C:/Users/touze/project/Shear_centre/strip/Job-1.odb,loading,Increment      1: Step Time =    1.000,"PART-1-1",          1963,  -20.0000E-03,   50.0000E-03,       1.40000,NA,NA,"",  -20.0000E-03,   50.0000E-03,       1.40000,   341.063E-03
C:/Users/touze/project/Shear_centre/strip/Job-1.odb,loading,Increment      1: Step Time =    1.000,"PART-1-1",          1962,  -20.0000E-03,   100.000E-03,       1.40000,NA,NA,"",  -20.0000E-03,   100.000E-03,       1.40000,   284.424E-03
C:/Users/touze/project/Shear_centre/strip/Job-1.odb,loading,Increment      1: Step Time =    1.000,"PART-1-1",          1961,  -20.0000E-03,   150.000E-03,       1.40000,NA,NA,"",  -20.0000E-03,   150.000E-03,       1.40000,   206.296E-03
C:/Users/touze/project/Shear_centre/strip/Job-1.odb,loading,Increment      1: Step Time =    1.000,"PART-1-1",          1960,  -20.0000E-03,   200.000E-03,       1.40000,NA,NA,"",  -20.0000E-03,   200.000E-03,       1.40000,   125.135E-03
C:/Users/touze/project/Shear_centre/strip/Job-1.odb,loading,Increment      1: Step Time =    1.000,"PART-1-1",          1959,  -20.0000E-03,      250.E-03,       1.40000,NA,NA,"",  -20.0000E-03,      250.E-03,       1.40000,   85.5753E-03
C:/Users/touze/project/Shear_centre/strip/Job-1.odb,loading,Increment      1: Step Time =    1.000,"PART-1-1",          1958,  -20.0000E-03,   300.000E-03,       1.40000,NA,NA,"",  -20.0000E-03,   300.000E-03,       1.40000,   123.129E-03
C:/Users/touze/project/Shear_centre/strip/Job-1.odb,loading,Increment      1: Step Time =    1.000,"PART-1-1",          1957,  -20.0000E-03,   350.000E-03,       1.40000,NA,NA,"",  -20.0000E-03,   350.000E-03,       1.40000,   204.018E-03
C:/Users/touze/project/Shear_centre/strip/Job-1.odb,loading,Increment      1: Step Time =    1.000,"PART-1-1",          1956,  -20.0000E-03,   400.000E-03,       1.40000,NA,NA,"",  -20.0000E-03,   400.000E-03,       1.40000,   282.724E-03
C:/Users/touze/project/Shear_centre/strip/Job-1.odb,loading,Increment      1: Step Time =    1.000,"PART-1-1",          1955,  -20.0000E-03,   450.000E-03,       1.40000,NA,NA,"",  -20.0000E-03,   450.000E-03,       1.40000,   340.270E-03
C:/Users/touze/project/Shear_centre/strip/Job-1.odb,loading,Increment      1: Step Time =    1.000,"PART-1-1",          1954,  -20.0000E-03,      500.E-03,       1.40000,NA,NA,"",  -20.0000E-03,      500.E-03,       1.40000,   361.643E-03
C:/Users/touze/project/Shear_centre/strip/Job-1.odb,loading,Increment      1: Step Time =    1.000,"PART-1-1",           692,   20.0000E-03,  -450.000E-03,       1.40000,NA,NA,"",   20.0000E-03,  -450.000E-03,       1.40000,   340.270E-03
C:/Users/touze/project/Shear_centre/strip/Job-1.odb,loading,Increment      1: Step Time =    1.000,"PART-1-1",           693,   20.0000E-03,     -500.E-03,       1.40000,NA,NA,"",   20.0000E-03,     -500.E-03,       1.40000,   361.643E-03
C:/Users/touze/project/Shear_centre/strip/Job-1.odb,loading,Increment      1: Step Time =    1.000,"PART-1-1",           691,   20.0000E-03,  -400.000E-03,       1.40000,NA,NA,"",   20.0000E-03,  -400.000E-03,       1.40000,   282.724E-03
C:/Users/touze/project/Shear_centre/strip/Job-1.odb,loading,Increment      1: Step Time =    1.000,"PART-1-1",           690,   20.0000E-03,  -350.000E-03,       1.40000,NA,NA,"",   20.0000E-03,  -350.000E-03,       1.40000,   204.018E-03
C:/Users/touze/project/Shear_centre/strip/Job-1.odb,loading,Increment      1: Step Time =    1.000,"PART-1-1",           689,   20.0000E-03,  -300.000E-03,       1.40000,NA,NA,"",   20.0000E-03,  -300.000E-03,       1.40000,   123.129E-03
C:/Users/touze/project/Shear_centre/strip/Job-1.odb,loading,Increment      1: Step Time =    1.000,"PART-1-1",           688,   20.0000E-03,     -250.E-03,       1.40000,NA,NA,"",   20.0000E-03,     -250.E-03,       1.40000,   85.5753E-03
C:/Users/touze/project/Shear_centre/strip/Job-1.odb,loading,Increment      1: Step Time =    1.000,"PART-1-1",           687,   20.0000E-03,  -200.000E-03,       1.40000,NA,NA,"",   20.0000E-03,  -200.000E-03,       1.40000,   125.135E-03
C:/Users/touze/project/Shear_centre/strip/Job-1.odb,loading,Increment      1: Step Time =    1.000,"PART-1-1",           686,   20.0000E-03,  -150.000E-03,       1.40000,NA,NA,"",   20.0000E-03,  -150.000E-03,       1.40000,   206.296E-03
C:/Users/touze/project/Shear_centre/strip/Job-1.odb,loading,Increment      1: Step Time =    1.000,"PART-1-1",           685,   20.0000E-03,  -100.000E-03,       1.40000,NA,NA,"",   20.0000E-03,  -100.000E-03,       1.40000,   284.424E-03
C:/Users/touze/project/Shear_centre/strip/Job-1.odb,loading,Increment      1: Step Time =    1.000,"PART-1-1",           684,   20.0000E-03,  -50.0000E-03,       1.40000,NA,NA,"",   20.0000E-03,  -50.0000E-03,       1.40000,   341.063E-03
C:/Users/touze/project/Shear_centre/strip/Job-1.odb,loading,Increment      1: Step Time =    1.000,"PART-1-1",           683,   20.0000E-03,            0.,       1.40000,NA,NA,"",   20.0000E-03,            0.,       1.40000,   361.977E-03
C:/Users/touze/project/Shear_centre/strip/Job-1.odb,loading,Increment      1: Step Time =    1.000,"PART-1-1",           682,   20.0000E-03,   50.0000E-03,       1.40000,NA,NA,"",   20.0000E-03,   50.0000E-03,       1.40000,   341.063E-03
C:/Users/touze/project/Shear_centre/strip/Job-1.odb,loading,Increment      1: Step Time =    1.000,"PART-1-1",           681,   20.0000E-03,   100.000E-03,       1.40000,NA,NA,"",   20.0000E-03,   100.000E-03,       1.40000,   284.424E-03
C:/Users/touze/project/Shear_centre/strip/Job-1.odb,loading,Increment      1: Step Time =    1.000,"PART-1-1",           680,   20.0000E-03,   150.000E-03,       1.40000,NA,NA,"",   20.0000E-03,   150.000E-03,       1.40000,   206.296E-03
C:/Users/touze/project/Shear_centre/strip/Job-1.odb,loading,Increment      1: Step Time =    1.000,"PART-1-1",           679,   20.0000E-03,   200.000E-03,       1.40000,NA,NA,"",   20.0000E-03,   200.000E-03,       1.40000,   125.135E-03
C:/Users/touze/project/Shear_centre/strip/Job-1.odb,loading,Increment      1: Step Time =    1.000,"PART-1-1",           678,   20.0000E-03,      250.E-03,       1.40000,NA,NA,"",   20.0000E-03,      250.E-03,       1.40000,   85.5753E-03
C:/Users/touze/project/Shear_centre/strip/Job-1.odb,loading,Increment      1: Step Time =    1.000,"PART-1-1",           677,   20.0000E-03,   300.000E-03,       1.40000,NA,NA,"",   20.0000E-03,   300.000E-03,       1.40000,   123.129E-03
C:/Users/touze/project/Shear_centre/strip/Job-1.odb,loading,Increment      1: Step Time =    1.000,"PART-1-1",           676,   20.0000E-03,   350.000E-03,       1.40000,NA,NA,"",   20.0000E-03,   350.000E-03,       1.40000,   204.018E-03
C:/Users/touze/project/Shear_centre/strip/Job-1.odb,loading,Increment      1: Step Time =    1.000,"PART-1-1",           675,   20.0000E-03,   400.000E-03,       1.40000,NA,NA,"",   20.0000E-03,   400.000E-03,       1.40000,   282.724E-03
C:/Users/touze/project/Shear_centre/strip/Job-1.odb,loading,Increment      1: Step Time =    1.000,"PART-1-1",           674,   20.0000E-03,   450.000E-03,       1.40000,NA,NA,"",   20.0000E-03,   450.000E-03,       1.40000,   340.270E-03
C:/Users/touze/project/Shear_centre/strip/Job-1.odb,loading,Increment      1: Step Time =    1.000,"PART-1-1",           673,   20.0000E-03,      500.E-03,       1.40000,NA,NA,"",   20.0000E-03,      500.E-03,       1.40000,   361.643E-03
C:/Users/touze/project/Shear_centre/strip/Job-1.odb,loading,Increment      1: Step Time =    1.000,"PART-1-1",          1973,  -20.0000E-03,  -450.000E-03,       1.40000,NA,NA,"",  -20.0000E-03,  -450.000E-03,       1.40000,   340.270E-03
C:/Users/touze/project/Shear_centre/strip/Job-1.odb,loading,Increment      1: Step Time =    1.000,"PART-1-1",           653,   20.0000E-03,   450.000E-03,       1.45000,NA,NA,"",   20.0000E-03,   450.000E-03,       1.45000,   327.615E-03
C:/Users/touze/project/Shear_centre/strip/Job-1.odb,loading,Increment      1: Step Time =    1.000,"PART-1-1",           654,   20.0000E-03,   400.000E-03,       1.45000,NA,NA,"",   20.0000E-03,   400.000E-03,       1.45000,   272.734E-03
C:/Users/touze/project/Shear_centre/strip/Job-1.odb,loading,Increment      1: Step Time =    1.000,"PART-1-1",           655,   20.0000E-03,   350.000E-03,       1.45000,NA,NA,"",   20.0000E-03,   350.000E-03,       1.45000,   197.366E-03
C:/Users/touze/project/Shear_centre/strip/Job-1.odb,loading,Increment      1: Step Time =    1.000,"PART-1-1",           656,   20.0000E-03,   300.000E-03,       1.45000,NA,NA,"",   20.0000E-03,   300.000E-03,       1.45000,   119.849E-03
C:/Users/touze/project/Shear_centre/strip/Job-1.odb,loading,Increment      1: Step Time =    1.000,"PART-1-1",           657,   20.0000E-03,      250.E-03,       1.45000,NA,NA,"",   20.0000E-03,      250.E-03,       1.45000,   83.8806E-03
C:/Users/touze/project/Shear_centre/strip/Job-1.odb,loading,Increment      1: Step Time =    1.000,"PART-1-1",           658,   20.0000E-03,   200.000E-03,       1.45000,NA,NA,"",   20.0000E-03,   200.000E-03,       1.45000,   121.713E-03
C:/Users/touze/project/Shear_centre/strip/Job-1.odb,loading,Increment      1: Step Time =    1.000,"PART-1-1",           659,   20.0000E-03,   150.000E-03,       1.45000,NA,NA,"",   20.0000E-03,   150.000E-03,       1.45000,   199.488E-03
C:/Users/touze/project/Shear_centre/strip/Job-1.odb,loading,Increment      1: Step Time =    1.000,"PART-1-1",           660,   20.0000E-03,   100.000E-03,       1.45000,NA,NA,"",   20.0000E-03,   100.000E-03,       1.45000,   274.352E-03
C:/Users/touze/project/Shear_centre/strip/Job-1.odb,loading,Increment      1: Step Time =    1.000,"PART-1-1",           661,   20.0000E-03,   50.0000E-03,       1.45000,NA,NA,"",   20.0000E-03,   50.0000E-03,       1.45000,   328.464E-03
C:/Users/touze/project/Shear_centre/strip/Job-1.odb,loading,Increment      1: Step Time =    1.000,"PART-1-1",           662,   20.0000E-03,            0.,       1.45000,NA,NA,"",   20.0000E-03,            0.,       1.45000,   348.398E-03
C:/Users/touze/project/Shear_centre/strip/Job-1.odb,loading,Increment      1: Step Time =    1.000,"PART-1-1",           663,   20.0000E-03,  -50.0000E-03,       1.45000,NA,NA,"",   20.0000E-03,  -50.0000E-03,       1.45000,   328.464E-03
C:/Users/touze/project/Shear_centre/strip/Job-1.odb,loading,Increment      1: Step Time =    1.000,"PART-1-1",           664,   20.0000E-03,  -100.000E-03,       1.45000,NA,NA,"",   20.0000E-03,  -100.000E-03,       1.45000,   274.352E-03
C:/Users/touze/project/Shear_centre/strip/Job-1.odb,loading,Increment      1: Step Time =    1.000,"PART-1-1",           665,   20.0000E-03,  -150.000E-03,       1.45000,NA,NA,"",   20.0000E-03,  -150.000E-03,       1.45000,   199.488E-03
C:/Users/touze/project/Shear_centre/strip/Job-1.odb,loading,Increment      1: Step Time =    1.000,"PART-1-1",           666,   20.0000E-03,  -200.000E-03,       1.45000,NA,NA,"",   20.0000E-03,  -200.000E-03,       1.45000,   121.713E-03
C:/Users/touze/project/Shear_centre/strip/Job-1.odb,loading,Increment      1: Step Time =    1.000,"PART-1-1",           667,   20.0000E-03,     -250.E-03,       1.45000,NA,NA,"",   20.0000E-03,     -250.E-03,       1.45000,   83.8806E-03
C:/Users/touze/project/Shear_centre/strip/Job-1.odb,loading,Increment      1: Step Time =    1.000,"PART-1-1",           668,   20.0000E-03,  -300.000E-03,       1.45000,NA,NA,"",   20.0000E-03,  -300.000E-03,       1.45000,   119.849E-03
C:/Users/touze/project/Shear_centre/strip/Job-1.odb,loading,Increment      1: Step Time =    1.000,"PART-1-1",           669,   20.0000E-03,  -350.000E-03,       1.45000,NA,NA,"",   20.0000E-03,  -350.000E-03,       1.45000,   197.366E-03
C:/Users/touze/project/Shear_centre/strip/Job-1.odb,loading,Increment      1: Step Time =    1.000,"PART-1-1",           670,   20.0000E-03,  -400.000E-03,       1.45000,NA,NA,"",   20.0000E-03,  -400.000E-03,       1.45000,   272.734E-03
C:/Users/touze/project/Shear_centre/strip/Job-1.odb,loading,Increment      1: Step Time =    1.000,"PART-1-1",           671,   20.0000E-03,  -450.000E-03,       1.45000,NA,NA,"",   20.0000E-03,  -450.000E-03,       1.45000,   327.615E-03
C:/Users/touze/project/Shear_centre/strip/Job-1.odb,loading,Increment      1: Step Time =    1.000,"PART-1-1",           652,   20.0000E-03,      500.E-03,       1.45000,NA,NA,"",   20.0000E-03,      500.E-03,       1.45000,   347.935E-03
C:/Users/touze/project/Shear_centre/strip/Job-1.odb,loading,Increment      1: Step Time =    1.000,"PART-1-1",          1953,  -20.0000E-03,     -500.E-03,       1.45000,NA,NA,"",  -20.0000E-03,     -500.E-03,       1.45000,   347.934E-03
C:/Users/touze/project/Shear_centre/strip/Job-1.odb,loading,Increment      1: Step Time =    1.000,"PART-1-1",          1933,  -20.0000E-03,      500.E-03,       1.45000,NA,NA,"",  -20.0000E-03,      500.E-03,       1.45000,   347.935E-03
C:/Users/touze/project/Shear_centre/strip/Job-1.odb,loading,Increment      1: Step Time =    1.000,"PART-1-1",          1934,  -20.0000E-03,   450.000E-03,       1.45000,NA,NA,"",  -20.0000E-03,   450.000E-03,       1.45000,   327.615E-03
C:/Users/touze/project/Shear_centre/strip/Job-1.odb,loading,Increment      1: Step Time =    1.000,"PART-1-1",          1935,  -20.0000E-03,   400.000E-03,       1.45000,NA,NA,"",  -20.0000E-03,   400.000E-03,       1.45000,   272.734E-03
C:/Users/touze/project/Shear_centre/strip/Job-1.odb,loading,Increment      1: Step Time =    1.000,"PART-1-1",          1936,  -20.0000E-03,   350.000E-03,       1.45000,NA,NA,"",  -20.0000E-03,   350.000E-03,       1.45000,   197.366E-03
C:/Users/touze/project/Shear_centre/strip/Job-1.odb,loading,Increment      1: Step Time =    1.000,"PART-1-1",          1937,  -20.0000E-03,   300.000E-03,       1.45000,NA,NA,"",  -20.0000E-03,   300.000E-03,       1.45000,   119.849E-03
C:/Users/touze/project/Shear_centre/strip/Job-1.odb,loading,Increment      1: Step Time =    1.000,"PART-1-1",          1938,  -20.0000E-03,      250.E-03,       1.45000,NA,NA,"",  -20.0000E-03,      250.E-03,       1.45000,   83.8806E-03
C:/Users/touze/project/Shear_centre/strip/Job-1.odb,loading,Increment      1: Step Time =    1.000,"PART-1-1",          1939,  -20.0000E-03,   200.000E-03,       1.45000,NA,NA,"",  -20.0000E-03,   200.000E-03,       1.45000,   121.713E-03
C:/Users/touze/project/Shear_centre/strip/Job-1.odb,loading,Increment      1: Step Time =    1.000,"PART-1-1",          1940,  -20.0000E-03,   150.000E-03,       1.45000,NA,NA,"",  -20.0000E-03,   150.000E-03,       1.45000,   199.488E-03
C:/Users/touze/project/Shear_centre/strip/Job-1.odb,loading,Increment      1: Step Time =    1.000,"PART-1-1",          1941,  -20.0000E-03,   100.000E-03,       1.45000,NA,NA,"",  -20.0000E-03,   100.000E-03,       1.45000,   274.352E-03
C:/Users/touze/project/Shear_centre/strip/Job-1.odb,loading,Increment      1: Step Time =    1.000,"PART-1-1",          1942,  -20.0000E-03,   50.0000E-03,       1.45000,NA,NA,"",  -20.0000E-03,   50.0000E-03,       1.45000,   328.464E-03
C:/Users/touze/project/Shear_centre/strip/Job-1.odb,loading,Increment      1: Step Time =    1.000,"PART-1-1",          1943,  -20.0000E-03,            0.,       1.45000,NA,NA,"",  -20.0000E-03,            0.,       1.45000,   348.398E-03
C:/Users/touze/project/Shear_centre/strip/Job-1.odb,loading,Increment      1: Step Time =    1.000,"PART-1-1",          1944,  -20.0000E-03,  -50.0000E-03,       1.45000,NA,NA,"",  -20.0000E-03,  -50.0000E-03,       1.45000,   328.464E-03
C:/Users/touze/project/Shear_centre/strip/Job-1.odb,loading,Increment      1: Step Time =    1.000,"PART-1-1",          1945,  -20.0000E-03,  -100.000E-03,       1.45000,NA,NA,"",  -20.0000E-03,  -100.000E-03,       1.45000,   274.352E-03
C:/Users/touze/project/Shear_centre/strip/Job-1.odb,loading,Increment      1: Step Time =    1.000,"PART-1-1",          1946,  -20.0000E-03,  -150.000E-03,       1.45000,NA,NA,"",  -20.0000E-03,  -150.000E-03,       1.45000,   199.488E-03
C:/Users/touze/project/Shear_centre/strip/Job-1.odb,loading,Increment      1: Step Time =    1.000,"PART-1-1",          1947,  -20.0000E-03,  -200.000E-03,       1.45000,NA,NA,"",  -20.0000E-03,  -200.000E-03,       1.45000,   121.713E-03
C:/Users/touze/project/Shear_centre/strip/Job-1.odb,loading,Increment      1: Step Time =    1.000,"PART-1-1",          1948,  -20.0000E-03,     -250.E-03,       1.45000,NA,NA,"",  -20.0000E-03,     -250.E-03,       1.45000,   83.8806E-03
C:/Users/touze/project/Shear_centre/strip/Job-1.odb,loading,Increment      1: Step Time =    1.000,"PART-1-1",          1949,  -20.0000E-03,  -300.000E-03,       1.45000,NA,NA,"",  -20.0000E-03,  -300.000E-03,       1.45000,   119.849E-03
C:/Users/touze/project/Shear_centre/strip/Job-1.odb,loading,Increment      1: Step Time =    1.000,"PART-1-1",          1950,  -20.0000E-03,  -350.000E-03,       1.45000,NA,NA,"",  -20.0000E-03,  -350.000E-03,       1.45000,   197.366E-03
C:/Users/touze/project/Shear_centre/strip/Job-1.odb,loading,Increment      1: Step Time =    1.000,"PART-1-1",          1951,  -20.0000E-03,  -400.000E-03,       1.45000,NA,NA,"",  -20.0000E-03,  -400.000E-03,       1.45000,   272.734E-03
C:/Users/touze/project/Shear_centre/strip/Job-1.odb,loading,Increment      1: Step Time =    1.000,"PART-1-1",          1952,  -20.0000E-03,  -450.000E-03,       1.45000,NA,NA,"",  -20.0000E-03,  -450.000E-03,       1.45000,   327.615E-03
C:/Users/touze/project/Shear_centre/strip/Job-1.odb,loading,Increment      1: Step Time =    1.000,"PART-1-1",           672,   20.0000E-03,     -500.E-03,       1.45000,NA,NA,"",   20.0000E-03,     -500.E-03,       1.45000,   347.934E-03
C:/Users/touze/project/Shear_centre/strip/Job-1.odb,loading,Increment      1: Step Time =    1.000,"PART-1-1",          1931,  -20.0000E-03,  -450.000E-03,           1.5,NA,NA,"",  -20.0000E-03,  -450.000E-03,           1.5,   315.162E-03
C:/Users/touze/project/Shear_centre/strip/Job-1.odb,loading,Increment      1: Step Time =    1.000,"PART-1-1",           651,   20.0000E-03,     -500.E-03,           1.5,NA,NA,"",   20.0000E-03,     -500.E-03,           1.5,   334.464E-03
C:/Users/touze/project/Shear_centre/strip/Job-1.odb,loading,Increment      1: Step Time =    1.000,"PART-1-1",           650,   20.0000E-03,  -450.000E-03,           1.5,NA,NA,"",   20.0000E-03,  -450.000E-03,           1.5,   315.162E-03
C:/Users/touze/project/Shear_centre/strip/Job-1.odb,loading,Increment      1: Step Time =    1.000,"PART-1-1",           649,   20.0000E-03,  -400.000E-03,           1.5,NA,NA,"",   20.0000E-03,  -400.000E-03,           1.5,   262.867E-03
C:/Users/touze/project/Shear_centre/strip/Job-1.odb,loading,Increment      1: Step Time =    1.000,"PART-1-1",           648,   20.0000E-03,  -350.000E-03,           1.5,NA,NA,"",   20.0000E-03,  -350.000E-03,           1.5,   190.777E-03
C:/Users/touze/project/Shear_centre/strip/Job-1.odb,loading,Increment      1: Step Time =    1.000,"PART-1-1",           647,   20.0000E-03,  -300.000E-03,           1.5,NA,NA,"",   20.0000E-03,  -300.000E-03,           1.5,   116.610E-03
C:/Users/touze/project/Shear_centre/strip/Job-1.odb,loading,Increment      1: Step Time =    1.000,"PART-1-1",           646,   20.0000E-03,     -250.E-03,           1.5,NA,NA,"",   20.0000E-03,     -250.E-03,           1.5,   82.2245E-03
C:/Users/touze/project/Shear_centre/strip/Job-1.odb,loading,Increment      1: Step Time =    1.000,"PART-1-1",           645,   20.0000E-03,  -200.000E-03,           1.5,NA,NA,"",   20.0000E-03,  -200.000E-03,           1.5,   118.338E-03
C:/Users/touze/project/Shear_centre/strip/Job-1.odb,loading,Increment      1: Step Time =    1.000,"PART-1-1",           644,   20.0000E-03,  -150.000E-03,           1.5,NA,NA,"",   20.0000E-03,  -150.000E-03,           1.5,   192.750E-03
C:/Users/touze/project/Shear_centre/strip/Job-1.odb,loading,Increment      1: Step Time =    1.000,"PART-1-1",           643,   20.0000E-03,  -100.000E-03,           1.5,NA,NA,"",   20.0000E-03,  -100.000E-03,           1.5,   264.403E-03
C:/Users/touze/project/Shear_centre/strip/Job-1.odb,loading,Increment      1: Step Time =    1.000,"PART-1-1",           642,   20.0000E-03,  -50.0000E-03,           1.5,NA,NA,"",   20.0000E-03,  -50.0000E-03,           1.5,   316.065E-03
C:/Users/touze/project/Shear_centre/strip/Job-1.odb,loading,Increment      1: Step Time =    1.000,"PART-1-1",           641,   20.0000E-03,            0.,           1.5,NA,NA,"",   20.0000E-03,            0.,           1.5,   335.060E-03
C:/Users/touze/project/Shear_centre/strip/Job-1.odb,loading,Increment      1: Step Time =    1.000,"PART-1-1",           640,   20.0000E-03,   50.0000E-03,           1.5,NA,NA,"",   20.0000E-03,   50.0000E-03,           1.5,   316.065E-03
C:/Users/touze/project/Shear_centre/strip/Job-1.odb,loading,Increment      1: Step Time =    1.000,"PART-1-1",           639,   20.0000E-03,   100.000E-03,           1.5,NA,NA,"",   20.0000E-03,   100.000E-03,           1.5,   264.402E-03
C:/Users/touze/project/Shear_centre/strip/Job-1.odb,loading,Increment      1: Step Time =    1.000,"PART-1-1",           638,   20.0000E-03,   150.000E-03,           1.5,NA,NA,"",   20.0000E-03,   150.000E-03,           1.5,   192.750E-03
C:/Users/touze/project/Shear_centre/strip/Job-1.odb,loading,Increment      1: Step Time =    1.000,"PART-1-1",           637,   20.0000E-03,   200.000E-03,           1.5,NA,NA,"",   20.0000E-03,   200.000E-03,           1.5,   118.338E-03
C:/Users/touze/project/Shear_centre/strip/Job-1.odb,loading,Increment      1: Step Time =    1.000,"PART-1-1",           636,   20.0000E-03,      250.E-03,           1.5,NA,NA,"",   20.0000E-03,      250.E-03,           1.5,   82.2245E-03
C:/Users/touze/project/Shear_centre/strip/Job-1.odb,loading,Increment      1: Step Time =    1.000,"PART-1-1",           635,   20.0000E-03,   300.000E-03,           1.5,NA,NA,"",   20.0000E-03,   300.000E-03,           1.5,   116.610E-03
C:/Users/touze/project/Shear_centre/strip/Job-1.odb,loading,Increment      1: Step Time =    1.000,"PART-1-1",           634,   20.0000E-03,   350.000E-03,           1.5,NA,NA,"",   20.0000E-03,   350.000E-03,           1.5,   190.777E-03
C:/Users/touze/project/Shear_centre/strip/Job-1.odb,loading,Increment      1: Step Time =    1.000,"PART-1-1",           633,   20.0000E-03,   400.000E-03,           1.5,NA,NA,"",   20.0000E-03,   400.000E-03,           1.5,   262.867E-03
C:/Users/touze/project/Shear_centre/strip/Job-1.odb,loading,Increment      1: Step Time =    1.000,"PART-1-1",           632,   20.0000E-03,   450.000E-03,           1.5,NA,NA,"",   20.0000E-03,   450.000E-03,           1.5,   315.162E-03
C:/Users/touze/project/Shear_centre/strip/Job-1.odb,loading,Increment      1: Step Time =    1.000,"PART-1-1",           631,   20.0000E-03,      500.E-03,           1.5,NA,NA,"",   20.0000E-03,      500.E-03,           1.5,   334.464E-03
C:/Users/touze/project/Shear_centre/strip/Job-1.odb,loading,Increment      1: Step Time =    1.000,"PART-1-1",          1912,  -20.0000E-03,      500.E-03,           1.5,NA,NA,"",  -20.0000E-03,      500.E-03,           1.5,   334.464E-03
C:/Users/touze/project/Shear_centre/strip/Job-1.odb,loading,Increment      1: Step Time =    1.000,"PART-1-1",          1913,  -20.0000E-03,   450.000E-03,           1.5,NA,NA,"",  -20.0000E-03,   450.000E-03,           1.5,   315.162E-03
C:/Users/touze/project/Shear_centre/strip/Job-1.odb,loading,Increment      1: Step Time =    1.000,"PART-1-1",          1914,  -20.0000E-03,   400.000E-03,           1.5,NA,NA,"",  -20.0000E-03,   400.000E-03,           1.5,   262.867E-03
C:/Users/touze/project/Shear_centre/strip/Job-1.odb,loading,Increment      1: Step Time =    1.000,"PART-1-1",          1915,  -20.0000E-03,   350.000E-03,           1.5,NA,NA,"",  -20.0000E-03,   350.000E-03,           1.5,   190.777E-03
C:/Users/touze/project/Shear_centre/strip/Job-1.odb,loading,Increment      1: Step Time =    1.000,"PART-1-1",          1916,  -20.0000E-03,   300.000E-03,           1.5,NA,NA,"",  -20.0000E-03,   300.000E-03,           1.5,   116.610E-03
C:/Users/touze/project/Shear_centre/strip/Job-1.odb,loading,Increment      1: Step Time =    1.000,"PART-1-1",          1917,  -20.0000E-03,      250.E-03,           1.5,NA,NA,"",  -20.0000E-03,      250.E-03,           1.5,   82.2245E-03
C:/Users/touze/project/Shear_centre/strip/Job-1.odb,loading,Increment      1: Step Time =    1.000,"PART-1-1",          1918,  -20.0000E-03,   200.000E-03,           1.5,NA,NA,"",  -20.0000E-03,   200.000E-03,           1.5,   118.338E-03
C:/Users/touze/project/Shear_centre/strip/Job-1.odb,loading,Increment      1: Step Time =    1.000,"PART-1-1",          1919,  -20.0000E-03,   150.000E-03,           1.5,NA,NA,"",  -20.0000E-03,   150.000E-03,           1.5,   192.750E-03
C:/Users/touze/project/Shear_centre/strip/Job-1.odb,loading,Increment      1: Step Time =    1.000,"PART-1-1",          1920,  -20.0000E-03,   100.000E-03,           1.5,NA,NA,"",  -20.0000E-03,   100.000E-03,           1.5,   264.402E-03
C:/Users/touze/project/Shear_centre/strip/Job-1.odb,loading,Increment      1: Step Time =    1.000,"PART-1-1",          1921,  -20.0000E-03,   50.0000E-03,           1.5,NA,NA,"",  -20.0000E-03,   50.0000E-03,           1.5,   316.065E-03
C:/Users/touze/project/Shear_centre/strip/Job-1.odb,loading,Increment      1: Step Time =    1.000,"PART-1-1",          1922,  -20.0000E-03,            0.,           1.5,NA,NA,"",  -20.0000E-03,            0.,           1.5,   335.060E-03
C:/Users/touze/project/Shear_centre/strip/Job-1.odb,loading,Increment      1: Step Time =    1.000,"PART-1-1",          1923,  -20.0000E-03,  -50.0000E-03,           1.5,NA,NA,"",  -20.0000E-03,  -50.0000E-03,           1.5,   316.065E-03
C:/Users/touze/project/Shear_centre/strip/Job-1.odb,loading,Increment      1: Step Time =    1.000,"PART-1-1",          1924,  -20.0000E-03,  -100.000E-03,           1.5,NA,NA,"",  -20.0000E-03,  -100.000E-03,           1.5,   264.403E-03
C:/Users/touze/project/Shear_centre/strip/Job-1.odb,loading,Increment      1: Step Time =    1.000,"PART-1-1",          1925,  -20.0000E-03,  -150.000E-03,           1.5,NA,NA,"",  -20.0000E-03,  -150.000E-03,           1.5,   192.750E-03
C:/Users/touze/project/Shear_centre/strip/Job-1.odb,loading,Increment      1: Step Time =    1.000,"PART-1-1",          1926,  -20.0000E-03,  -200.000E-03,           1.5,NA,NA,"",  -20.0000E-03,  -200.000E-03,           1.5,   118.338E-03
C:/Users/touze/project/Shear_centre/strip/Job-1.odb,loading,Increment      1: Step Time =    1.000,"PART-1-1",          1927,  -20.0000E-03,     -250.E-03,           1.5,NA,NA,"",  -20.0000E-03,     -250.E-03,           1.5,   82.2245E-03
C:/Users/touze/project/Shear_centre/strip/Job-1.odb,loading,Increment      1: Step Time =    1.000,"PART-1-1",          1928,  -20.0000E-03,  -300.000E-03,           1.5,NA,NA,"",  -20.0000E-03,  -300.000E-03,           1.5,   116.610E-03
C:/Users/touze/project/Shear_centre/strip/Job-1.odb,loading,Increment      1: Step Time =    1.000,"PART-1-1",          1929,  -20.0000E-03,  -350.000E-03,           1.5,NA,NA,"",  -20.0000E-03,  -350.000E-03,           1.5,   190.777E-03
C:/Users/touze/project/Shear_centre/strip/Job-1.odb,loading,Increment      1: Step Time =    1.000,"PART-1-1",          1930,  -20.0000E-03,  -400.000E-03,           1.5,NA,NA,"",  -20.0000E-03,  -400.000E-03,           1.5,   262.867E-03
C:/Users/touze/project/Shear_centre/strip/Job-1.odb,loading,Increment      1: Step Time =    1.000,"PART-1-1",          1932,  -20.0000E-03,     -500.E-03,           1.5,NA,NA,"",  -20.0000E-03,     -500.E-03,           1.5,   334.464E-03
C:/Users/touze/project/Shear_centre/strip/Job-1.odb,loading,Increment      1: Step Time =    1.000,"PART-1-1",           610,   20.0000E-03,      500.E-03,       1.55000,NA,NA,"",   20.0000E-03,      500.E-03,       1.55000,   321.207E-03
C:/Users/touze/project/Shear_centre/strip/Job-1.odb,loading,Increment      1: Step Time =    1.000,"PART-1-1",          1892,  -20.0000E-03,   450.000E-03,       1.55000,NA,NA,"",  -20.0000E-03,   450.000E-03,       1.55000,   302.889E-03
C:/Users/touze/project/Shear_centre/strip/Job-1.odb,loading,Increment      1: Step Time =    1.000,"PART-1-1",           611,   20.0000E-03,   450.000E-03,       1.55000,NA,NA,"",   20.0000E-03,   450.000E-03,       1.55000,   302.889E-03
C:/Users/touze/project/Shear_centre/strip/Job-1.odb,loading,Increment      1: Step Time =    1.000,"PART-1-1",           612,   20.0000E-03,   400.000E-03,       1.55000,NA,NA,"",   20.0000E-03,   400.000E-03,       1.55000,   253.114E-03
C:/Users/touze/project/Shear_centre/strip/Job-1.odb,loading,Increment      1: Step Time =    1.000,"PART-1-1",           613,   20.0000E-03,   350.000E-03,       1.55000,NA,NA,"",   20.0000E-03,   350.000E-03,       1.55000,   184.255E-03
C:/Users/touze/project/Shear_centre/strip/Job-1.odb,loading,Increment      1: Step Time =    1.000,"PART-1-1",           614,   20.0000E-03,   300.000E-03,       1.55000,NA,NA,"",   20.0000E-03,   300.000E-03,       1.55000,   113.414E-03
C:/Users/touze/project/Shear_centre/strip/Job-1.odb,loading,Increment      1: Step Time =    1.000,"PART-1-1",           615,   20.0000E-03,      250.E-03,       1.55000,NA,NA,"",   20.0000E-03,      250.E-03,       1.55000,   80.6062E-03
C:/Users/touze/project/Shear_centre/strip/Job-1.odb,loading,Increment      1: Step Time =    1.000,"PART-1-1",           616,   20.0000E-03,   200.000E-03,       1.55000,NA,NA,"",   20.0000E-03,   200.000E-03,       1.55000,   115.007E-03
C:/Users/touze/project/Shear_centre/strip/Job-1.odb,loading,Increment      1: Step Time =    1.000,"PART-1-1",           617,   20.0000E-03,   150.000E-03,       1.55000,NA,NA,"",   20.0000E-03,   150.000E-03,       1.55000,   186.079E-03
C:/Users/touze/project/Shear_centre/strip/Job-1.odb,loading,Increment      1: Step Time =    1.000,"PART-1-1",           618,   20.0000E-03,   100.000E-03,       1.55000,NA,NA,"",   20.0000E-03,   100.000E-03,       1.55000,   254.573E-03
C:/Users/touze/project/Shear_centre/strip/Job-1.odb,loading,Increment      1: Step Time =    1.000,"PART-1-1",           619,   20.0000E-03,   50.0000E-03,       1.55000,NA,NA,"",   20.0000E-03,   50.0000E-03,       1.55000,   303.845E-03
C:/Users/touze/project/Shear_centre/strip/Job-1.odb,loading,Increment      1: Step Time =    1.000,"PART-1-1",           620,   20.0000E-03,            0.,       1.55000,NA,NA,"",   20.0000E-03,            0.,       1.55000,   321.926E-03
C:/Users/touze/project/Shear_centre/strip/Job-1.odb,loading,Increment      1: Step Time =    1.000,"PART-1-1",           621,   20.0000E-03,  -50.0000E-03,       1.55000,NA,NA,"",   20.0000E-03,  -50.0000E-03,       1.55000,   303.845E-03
C:/Users/touze/project/Shear_centre/strip/Job-1.odb,loading,Increment      1: Step Time =    1.000,"PART-1-1",           622,   20.0000E-03,  -100.000E-03,       1.55000,NA,NA,"",   20.0000E-03,  -100.000E-03,       1.55000,   254.573E-03
C:/Users/touze/project/Shear_centre/strip/Job-1.odb,loading,Increment      1: Step Time =    1.000,"PART-1-1",           623,   20.0000E-03,  -150.000E-03,       1.55000,NA,NA,"",   20.0000E-03,  -150.000E-03,       1.55000,   186.079E-03
C:/Users/touze/project/Shear_centre/strip/Job-1.odb,loading,Increment      1: Step Time =    1.000,"PART-1-1",           624,   20.0000E-03,  -200.000E-03,       1.55000,NA,NA,"",   20.0000E-03,  -200.000E-03,       1.55000,   115.007E-03
C:/Users/touze/project/Shear_centre/strip/Job-1.odb,loading,Increment      1: Step Time =    1.000,"PART-1-1",           625,   20.0000E-03,     -250.E-03,       1.55000,NA,NA,"",   20.0000E-03,     -250.E-03,       1.55000,   80.6062E-03
C:/Users/touze/project/Shear_centre/strip/Job-1.odb,loading,Increment      1: Step Time =    1.000,"PART-1-1",           626,   20.0000E-03,  -300.000E-03,       1.55000,NA,NA,"",   20.0000E-03,  -300.000E-03,       1.55000,   113.414E-03
C:/Users/touze/project/Shear_centre/strip/Job-1.odb,loading,Increment      1: Step Time =    1.000,"PART-1-1",           627,   20.0000E-03,  -350.000E-03,       1.55000,NA,NA,"",   20.0000E-03,  -350.000E-03,       1.55000,   184.255E-03
C:/Users/touze/project/Shear_centre/strip/Job-1.odb,loading,Increment      1: Step Time =    1.000,"PART-1-1",           628,   20.0000E-03,  -400.000E-03,       1.55000,NA,NA,"",   20.0000E-03,  -400.000E-03,       1.55000,   253.114E-03
C:/Users/touze/project/Shear_centre/strip/Job-1.odb,loading,Increment      1: Step Time =    1.000,"PART-1-1",           629,   20.0000E-03,  -450.000E-03,       1.55000,NA,NA,"",   20.0000E-03,  -450.000E-03,       1.55000,   302.889E-03
C:/Users/touze/project/Shear_centre/strip/Job-1.odb,loading,Increment      1: Step Time =    1.000,"PART-1-1",           630,   20.0000E-03,     -500.E-03,       1.55000,NA,NA,"",   20.0000E-03,     -500.E-03,       1.55000,   321.206E-03
C:/Users/touze/project/Shear_centre/strip/Job-1.odb,loading,Increment      1: Step Time =    1.000,"PART-1-1",          1911,  -20.0000E-03,     -500.E-03,       1.55000,NA,NA,"",  -20.0000E-03,     -500.E-03,       1.55000,   321.206E-03
C:/Users/touze/project/Shear_centre/strip/Job-1.odb,loading,Increment      1: Step Time =    1.000,"PART-1-1",          1910,  -20.0000E-03,  -450.000E-03,       1.55000,NA,NA,"",  -20.0000E-03,  -450.000E-03,       1.55000,   302.889E-03
C:/Users/touze/project/Shear_centre/strip/Job-1.odb,loading,Increment      1: Step Time =    1.000,"PART-1-1",          1909,  -20.0000E-03,  -400.000E-03,       1.55000,NA,NA,"",  -20.0000E-03,  -400.000E-03,       1.55000,   253.114E-03
C:/Users/touze/project/Shear_centre/strip/Job-1.odb,loading,Increment      1: Step Time =    1.000,"PART-1-1",          1908,  -20.0000E-03,  -350.000E-03,       1.55000,NA,NA,"",  -20.0000E-03,  -350.000E-03,       1.55000,   184.255E-03
C:/Users/touze/project/Shear_centre/strip/Job-1.odb,loading,Increment      1: Step Time =    1.000,"PART-1-1",          1907,  -20.0000E-03,  -300.000E-03,       1.55000,NA,NA,"",  -20.0000E-03,  -300.000E-03,       1.55000,   113.414E-03
C:/Users/touze/project/Shear_centre/strip/Job-1.odb,loading,Increment      1: Step Time =    1.000,"PART-1-1",          1906,  -20.0000E-03,     -250.E-03,       1.55000,NA,NA,"",  -20.0000E-03,     -250.E-03,       1.55000,   80.6062E-03
C:/Users/touze/project/Shear_centre/strip/Job-1.odb,loading,Increment      1: Step Time =    1.000,"PART-1-1",          1905,  -20.0000E-03,  -200.000E-03,       1.55000,NA,NA,"",  -20.0000E-03,  -200.000E-03,       1.55000,   115.007E-03
C:/Users/touze/project/Shear_centre/strip/Job-1.odb,loading,Increment      1: Step Time =    1.000,"PART-1-1",          1904,  -20.0000E-03,  -150.000E-03,       1.55000,NA,NA,"",  -20.0000E-03,  -150.000E-03,       1.55000,   186.079E-03
C:/Users/touze/project/Shear_centre/strip/Job-1.odb,loading,Increment      1: Step Time =    1.000,"PART-1-1",          1903,  -20.0000E-03,  -100.000E-03,       1.55000,NA,NA,"",  -20.0000E-03,  -100.000E-03,       1.55000,   254.573E-03
C:/Users/touze/project/Shear_centre/strip/Job-1.odb,loading,Increment      1: Step Time =    1.000,"PART-1-1",          1902,  -20.0000E-03,  -50.0000E-03,       1.55000,NA,NA,"",  -20.0000E-03,  -50.0000E-03,       1.55000,   303.845E-03
C:/Users/touze/project/Shear_centre/strip/Job-1.odb,loading,Increment      1: Step Time =    1.000,"PART-1-1",          1901,  -20.0000E-03,            0.,       1.55000,NA,NA,"",  -20.0000E-03,            0.,       1.55000,   321.926E-03
C:/Users/touze/project/Shear_centre/strip/Job-1.odb,loading,Increment      1: Step Time =    1.000,"PART-1-1",          1900,  -20.0000E-03,   50.0000E-03,       1.55000,NA,NA,"",  -20.0000E-03,   50.0000E-03,       1.55000,   303.845E-03
C:/Users/touze/project/Shear_centre/strip/Job-1.odb,loading,Increment      1: Step Time =    1.000,"PART-1-1",          1899,  -20.0000E-03,   100.000E-03,       1.55000,NA,NA,"",  -20.0000E-03,   100.000E-03,       1.55000,   254.573E-03
C:/Users/touze/project/Shear_centre/strip/Job-1.odb,loading,Increment      1: Step Time =    1.000,"PART-1-1",          1898,  -20.0000E-03,   150.000E-03,       1.55000,NA,NA,"",  -20.0000E-03,   150.000E-03,       1.55000,   186.079E-03
C:/Users/touze/project/Shear_centre/strip/Job-1.odb,loading,Increment      1: Step Time =    1.000,"PART-1-1",          1897,  -20.0000E-03,   200.000E-03,       1.55000,NA,NA,"",  -20.0000E-03,   200.000E-03,       1.55000,   115.007E-03
C:/Users/touze/project/Shear_centre/strip/Job-1.odb,loading,Increment      1: Step Time =    1.000,"PART-1-1",          1896,  -20.0000E-03,      250.E-03,       1.55000,NA,NA,"",  -20.0000E-03,      250.E-03,       1.55000,   80.6062E-03
C:/Users/touze/project/Shear_centre/strip/Job-1.odb,loading,Increment      1: Step Time =    1.000,"PART-1-1",          1895,  -20.0000E-03,   300.000E-03,       1.55000,NA,NA,"",  -20.0000E-03,   300.000E-03,       1.55000,   113.414E-03
C:/Users/touze/project/Shear_centre/strip/Job-1.odb,loading,Increment      1: Step Time =    1.000,"PART-1-1",          1894,  -20.0000E-03,   350.000E-03,       1.55000,NA,NA,"",  -20.0000E-03,   350.000E-03,       1.55000,   184.255E-03
C:/Users/touze/project/Shear_centre/strip/Job-1.odb,loading,Increment      1: Step Time =    1.000,"PART-1-1",          1893,  -20.0000E-03,   400.000E-03,       1.55000,NA,NA,"",  -20.0000E-03,   400.000E-03,       1.55000,   253.114E-03
C:/Users/touze/project/Shear_centre/strip/Job-1.odb,loading,Increment      1: Step Time =    1.000,"PART-1-1",          1891,  -20.0000E-03,      500.E-03,       1.55000,NA,NA,"",  -20.0000E-03,      500.E-03,       1.55000,   321.207E-03
C:/Users/touze/project/Shear_centre/strip/Job-1.odb,loading,Increment      1: Step Time =    1.000,"PART-1-1",          1870,  -20.0000E-03,      500.E-03,       1.60000,NA,NA,"",  -20.0000E-03,      500.E-03,       1.60000,   308.162E-03
C:/Users/touze/project/Shear_centre/strip/Job-1.odb,loading,Increment      1: Step Time =    1.000,"PART-1-1",           609,   20.0000E-03,     -500.E-03,       1.60000,NA,NA,"",   20.0000E-03,     -500.E-03,       1.60000,   308.162E-03
C:/Users/touze/project/Shear_centre/strip/Job-1.odb,loading,Increment      1: Step Time =    1.000,"PART-1-1",           608,   20.0000E-03,  -450.000E-03,       1.60000,NA,NA,"",   20.0000E-03,  -450.000E-03,       1.60000,   290.798E-03
C:/Users/touze/project/Shear_centre/strip/Job-1.odb,loading,Increment      1: Step Time =    1.000,"PART-1-1",           607,   20.0000E-03,  -400.000E-03,       1.60000,NA,NA,"",   20.0000E-03,  -400.000E-03,       1.60000,   243.478E-03
C:/Users/touze/project/Shear_centre/strip/Job-1.odb,loading,Increment      1: Step Time =    1.000,"PART-1-1",           606,   20.0000E-03,  -350.000E-03,       1.60000,NA,NA,"",   20.0000E-03,  -350.000E-03,       1.60000,   177.798E-03
C:/Users/touze/project/Shear_centre/strip/Job-1.odb,loading,Increment      1: Step Time =    1.000,"PART-1-1",           605,   20.0000E-03,  -300.000E-03,       1.60000,NA,NA,"",   20.0000E-03,  -300.000E-03,       1.60000,   110.262E-03
C:/Users/touze/project/Shear_centre/strip/Job-1.odb,loading,Increment      1: Step Time =    1.000,"PART-1-1",           604,   20.0000E-03,     -250.E-03,       1.60000,NA,NA,"",   20.0000E-03,     -250.E-03,       1.60000,   79.0278E-03
C:/Users/touze/project/Shear_centre/strip/Job-1.odb,loading,Increment      1: Step Time =    1.000,"PART-1-1",           603,   20.0000E-03,  -200.000E-03,       1.60000,NA,NA,"",   20.0000E-03,  -200.000E-03,       1.60000,   111.723E-03
C:/Users/touze/project/Shear_centre/strip/Job-1.odb,loading,Increment      1: Step Time =    1.000,"PART-1-1",           602,   20.0000E-03,  -150.000E-03,       1.60000,NA,NA,"",   20.0000E-03,  -150.000E-03,       1.60000,   179.477E-03
C:/Users/touze/project/Shear_centre/strip/Job-1.odb,loading,Increment      1: Step Time =    1.000,"PART-1-1",           601,   20.0000E-03,  -100.000E-03,       1.60000,NA,NA,"",   20.0000E-03,  -100.000E-03,       1.60000,   244.859E-03
C:/Users/touze/project/Shear_centre/strip/Job-1.odb,loading,Increment      1: Step Time =    1.000,"PART-1-1",           600,   20.0000E-03,  -50.0000E-03,       1.60000,NA,NA,"",   20.0000E-03,  -50.0000E-03,       1.60000,   291.807E-03
C:/Users/touze/project/Shear_centre/strip/Job-1.odb,loading,Increment      1: Step Time =    1.000,"PART-1-1",           599,   20.0000E-03,            0.,       1.60000,NA,NA,"",   20.0000E-03,            0.,       1.60000,   309.008E-03
C:/Users/touze/project/Shear_centre/strip/Job-1.odb,loading,Increment      1: Step Time =    1.000,"PART-1-1",           598,   20.0000E-03,   50.0000E-03,       1.60000,NA,NA,"",   20.0000E-03,   50.0000E-03,       1.60000,   291.807E-03
C:/Users/touze/project/Shear_centre/strip/Job-1.odb,loading,Increment      1: Step Time =    1.000,"PART-1-1",           597,   20.0000E-03,   100.000E-03,       1.60000,NA,NA,"",   20.0000E-03,   100.000E-03,       1.60000,   244.859E-03
C:/Users/touze/project/Shear_centre/strip/Job-1.odb,loading,Increment      1: Step Time =    1.000,"PART-1-1",           596,   20.0000E-03,   150.000E-03,       1.60000,NA,NA,"",   20.0000E-03,   150.000E-03,       1.60000,   179.477E-03
C:/Users/touze/project/Shear_centre/strip/Job-1.odb,loading,Increment      1: Step Time =    1.000,"PART-1-1",           595,   20.0000E-03,   200.000E-03,       1.60000,NA,NA,"",   20.0000E-03,   200.000E-03,       1.60000,   111.723E-03
C:/Users/touze/project/Shear_centre/strip/Job-1.odb,loading,Increment      1: Step Time =    1.000,"PART-1-1",           594,   20.0000E-03,      250.E-03,       1.60000,NA,NA,"",   20.0000E-03,      250.E-03,       1.60000,   79.0278E-03
C:/Users/touze/project/Shear_centre/strip/Job-1.odb,loading,Increment      1: Step Time =    1.000,"PART-1-1",           593,   20.0000E-03,   300.000E-03,       1.60000,NA,NA,"",   20.0000E-03,   300.000E-03,       1.60000,   110.262E-03
C:/Users/touze/project/Shear_centre/strip/Job-1.odb,loading,Increment      1: Step Time =    1.000,"PART-1-1",           592,   20.0000E-03,   350.000E-03,       1.60000,NA,NA,"",   20.0000E-03,   350.000E-03,       1.60000,   177.798E-03
C:/Users/touze/project/Shear_centre/strip/Job-1.odb,loading,Increment      1: Step Time =    1.000,"PART-1-1",           591,   20.0000E-03,   400.000E-03,       1.60000,NA,NA,"",   20.0000E-03,   400.000E-03,       1.60000,   243.478E-03
C:/Users/touze/project/Shear_centre/strip/Job-1.odb,loading,Increment      1: Step Time =    1.000,"PART-1-1",           590,   20.0000E-03,   450.000E-03,       1.60000,NA,NA,"",   20.0000E-03,   450.000E-03,       1.60000,   290.798E-03
C:/Users/touze/project/Shear_centre/strip/Job-1.odb,loading,Increment      1: Step Time =    1.000,"PART-1-1",          1872,  -20.0000E-03,   400.000E-03,       1.60000,NA,NA,"",  -20.0000E-03,   400.000E-03,       1.60000,   243.478E-03
C:/Users/touze/project/Shear_centre/strip/Job-1.odb,loading,Increment      1: Step Time =    1.000,"PART-1-1",          1873,  -20.0000E-03,   350.000E-03,       1.60000,NA,NA,"",  -20.0000E-03,   350.000E-03,       1.60000,   177.798E-03
C:/Users/touze/project/Shear_centre/strip/Job-1.odb,loading,Increment      1: Step Time =    1.000,"PART-1-1",          1874,  -20.0000E-03,   300.000E-03,       1.60000,NA,NA,"",  -20.0000E-03,   300.000E-03,       1.60000,   110.262E-03
C:/Users/touze/project/Shear_centre/strip/Job-1.odb,loading,Increment      1: Step Time =    1.000,"PART-1-1",          1875,  -20.0000E-03,      250.E-03,       1.60000,NA,NA,"",  -20.0000E-03,      250.E-03,       1.60000,   79.0278E-03
C:/Users/touze/project/Shear_centre/strip/Job-1.odb,loading,Increment      1: Step Time =    1.000,"PART-1-1",          1876,  -20.0000E-03,   200.000E-03,       1.60000,NA,NA,"",  -20.0000E-03,   200.000E-03,       1.60000,   111.723E-03
C:/Users/touze/project/Shear_centre/strip/Job-1.odb,loading,Increment      1: Step Time =    1.000,"PART-1-1",          1877,  -20.0000E-03,   150.000E-03,       1.60000,NA,NA,"",  -20.0000E-03,   150.000E-03,       1.60000,   179.477E-03
C:/Users/touze/project/Shear_centre/strip/Job-1.odb,loading,Increment      1: Step Time =    1.000,"PART-1-1",          1878,  -20.0000E-03,   100.000E-03,       1.60000,NA,NA,"",  -20.0000E-03,   100.000E-03,       1.60000,   244.859E-03
C:/Users/touze/project/Shear_centre/strip/Job-1.odb,loading,Increment      1: Step Time =    1.000,"PART-1-1",          1879,  -20.0000E-03,   50.0000E-03,       1.60000,NA,NA,"",  -20.0000E-03,   50.0000E-03,       1.60000,   291.807E-03
C:/Users/touze/project/Shear_centre/strip/Job-1.odb,loading,Increment      1: Step Time =    1.000,"PART-1-1",          1880,  -20.0000E-03,            0.,       1.60000,NA,NA,"",  -20.0000E-03,            0.,       1.60000,   309.008E-03
C:/Users/touze/project/Shear_centre/strip/Job-1.odb,loading,Increment      1: Step Time =    1.000,"PART-1-1",          1881,  -20.0000E-03,  -50.0000E-03,       1.60000,NA,NA,"",  -20.0000E-03,  -50.0000E-03,       1.60000,   291.807E-03
C:/Users/touze/project/Shear_centre/strip/Job-1.odb,loading,Increment      1: Step Time =    1.000,"PART-1-1",          1882,  -20.0000E-03,  -100.000E-03,       1.60000,NA,NA,"",  -20.0000E-03,  -100.000E-03,       1.60000,   244.859E-03
C:/Users/touze/project/Shear_centre/strip/Job-1.odb,loading,Increment      1: Step Time =    1.000,"PART-1-1",          1883,  -20.0000E-03,  -150.000E-03,       1.60000,NA,NA,"",  -20.0000E-03,  -150.000E-03,       1.60000,   179.477E-03
C:/Users/touze/project/Shear_centre/strip/Job-1.odb,loading,Increment      1: Step Time =    1.000,"PART-1-1",          1884,  -20.0000E-03,  -200.000E-03,       1.60000,NA,NA,"",  -20.0000E-03,  -200.000E-03,       1.60000,   111.723E-03
C:/Users/touze/project/Shear_centre/strip/Job-1.odb,loading,Increment      1: Step Time =    1.000,"PART-1-1",          1885,  -20.0000E-03,     -250.E-03,       1.60000,NA,NA,"",  -20.0000E-03,     -250.E-03,       1.60000,   79.0278E-03
C:/Users/touze/project/Shear_centre/strip/Job-1.odb,loading,Increment      1: Step Time =    1.000,"PART-1-1",          1886,  -20.0000E-03,  -300.000E-03,       1.60000,NA,NA,"",  -20.0000E-03,  -300.000E-03,       1.60000,   110.262E-03
C:/Users/touze/project/Shear_centre/strip/Job-1.odb,loading,Increment      1: Step Time =    1.000,"PART-1-1",          1887,  -20.0000E-03,  -350.000E-03,       1.60000,NA,NA,"",  -20.0000E-03,  -350.000E-03,       1.60000,   177.798E-03
C:/Users/touze/project/Shear_centre/strip/Job-1.odb,loading,Increment      1: Step Time =    1.000,"PART-1-1",          1888,  -20.0000E-03,  -400.000E-03,       1.60000,NA,NA,"",  -20.0000E-03,  -400.000E-03,       1.60000,   243.478E-03
C:/Users/touze/project/Shear_centre/strip/Job-1.odb,loading,Increment      1: Step Time =    1.000,"PART-1-1",          1889,  -20.0000E-03,  -450.000E-03,       1.60000,NA,NA,"",  -20.0000E-03,  -450.000E-03,       1.60000,   290.798E-03
C:/Users/touze/project/Shear_centre/strip/Job-1.odb,loading,Increment      1: Step Time =    1.000,"PART-1-1",           589,   20.0000E-03,      500.E-03,       1.60000,NA,NA,"",   20.0000E-03,      500.E-03,       1.60000,   308.162E-03
C:/Users/touze/project/Shear_centre/strip/Job-1.odb,loading,Increment      1: Step Time =    1.000,"PART-1-1",          1890,  -20.0000E-03,     -500.E-03,       1.60000,NA,NA,"",  -20.0000E-03,     -500.E-03,       1.60000,   308.162E-03
C:/Users/touze/project/Shear_centre/strip/Job-1.odb,loading,Increment      1: Step Time =    1.000,"PART-1-1",          1871,  -20.0000E-03,   450.000E-03,       1.60000,NA,NA,"",  -20.0000E-03,   450.000E-03,       1.60000,   290.798E-03
C:/Users/touze/project/Shear_centre/strip/Job-1.odb,loading,Increment      1: Step Time =    1.000,"PART-1-1",           568,   20.0000E-03,      500.E-03,       1.65000,NA,NA,"",   20.0000E-03,      500.E-03,       1.65000,   295.311E-03
C:/Users/touze/project/Shear_centre/strip/Job-1.odb,loading,Increment      1: Step Time =    1.000,"PART-1-1",           570,   20.0000E-03,   400.000E-03,       1.65000,NA,NA,"",   20.0000E-03,   400.000E-03,       1.65000,   233.954E-03
C:/Users/touze/project/Shear_centre/strip/Job-1.odb,loading,Increment      1: Step Time =    1.000,"PART-1-1",          1869,  -20.0000E-03,     -500.E-03,       1.65000,NA,NA,"",  -20.0000E-03,     -500.E-03,       1.65000,   295.311E-03
C:/Users/touze/project/Shear_centre/strip/Job-1.odb,loading,Increment      1: Step Time =    1.000,"PART-1-1",          1868,  -20.0000E-03,  -450.000E-03,       1.65000,NA,NA,"",  -20.0000E-03,  -450.000E-03,       1.65000,   278.874E-03
C:/Users/touze/project/Shear_centre/strip/Job-1.odb,loading,Increment      1: Step Time =    1.000,"PART-1-1",          1867,  -20.0000E-03,  -400.000E-03,       1.65000,NA,NA,"",  -20.0000E-03,  -400.000E-03,       1.65000,   233.954E-03
C:/Users/touze/project/Shear_centre/strip/Job-1.odb,loading,Increment      1: Step Time =    1.000,"PART-1-1",          1866,  -20.0000E-03,  -350.000E-03,       1.65000,NA,NA,"",  -20.0000E-03,  -350.000E-03,       1.65000,   171.409E-03
C:/Users/touze/project/Shear_centre/strip/Job-1.odb,loading,Increment      1: Step Time =    1.000,"PART-1-1",          1865,  -20.0000E-03,  -300.000E-03,       1.65000,NA,NA,"",  -20.0000E-03,  -300.000E-03,       1.65000,   107.156E-03
C:/Users/touze/project/Shear_centre/strip/Job-1.odb,loading,Increment      1: Step Time =    1.000,"PART-1-1",          1864,  -20.0000E-03,     -250.E-03,       1.65000,NA,NA,"",  -20.0000E-03,     -250.E-03,       1.65000,   77.4892E-03
C:/Users/touze/project/Shear_centre/strip/Job-1.odb,loading,Increment      1: Step Time =    1.000,"PART-1-1",          1863,  -20.0000E-03,  -200.000E-03,       1.65000,NA,NA,"",  -20.0000E-03,  -200.000E-03,       1.65000,   108.487E-03
C:/Users/touze/project/Shear_centre/strip/Job-1.odb,loading,Increment      1: Step Time =    1.000,"PART-1-1",          1862,  -20.0000E-03,  -150.000E-03,       1.65000,NA,NA,"",  -20.0000E-03,  -150.000E-03,       1.65000,   172.944E-03
C:/Users/touze/project/Shear_centre/strip/Job-1.odb,loading,Increment      1: Step Time =    1.000,"PART-1-1",          1861,  -20.0000E-03,  -100.000E-03,       1.65000,NA,NA,"",  -20.0000E-03,  -100.000E-03,       1.65000,   235.260E-03
C:/Users/touze/project/Shear_centre/strip/Job-1.odb,loading,Increment      1: Step Time =    1.000,"PART-1-1",          1860,  -20.0000E-03,  -50.0000E-03,       1.65000,NA,NA,"",  -20.0000E-03,  -50.0000E-03,       1.65000,   279.935E-03
C:/Users/touze/project/Shear_centre/strip/Job-1.odb,loading,Increment      1: Step Time =    1.000,"PART-1-1",          1859,  -20.0000E-03,            0.,       1.65000,NA,NA,"",  -20.0000E-03,            0.,       1.65000,   296.277E-03
C:/Users/touze/project/Shear_centre/strip/Job-1.odb,loading,Increment      1: Step Time =    1.000,"PART-1-1",          1858,  -20.0000E-03,   50.0000E-03,       1.65000,NA,NA,"",  -20.0000E-03,   50.0000E-03,       1.65000,   279.935E-03
C:/Users/touze/project/Shear_centre/strip/Job-1.odb,loading,Increment      1: Step Time =    1.000,"PART-1-1",          1857,  -20.0000E-03,   100.000E-03,       1.65000,NA,NA,"",  -20.0000E-03,   100.000E-03,       1.65000,   235.260E-03
C:/Users/touze/project/Shear_centre/strip/Job-1.odb,loading,Increment      1: Step Time =    1.000,"PART-1-1",          1856,  -20.0000E-03,   150.000E-03,       1.65000,NA,NA,"",  -20.0000E-03,   150.000E-03,       1.65000,   172.944E-03
C:/Users/touze/project/Shear_centre/strip/Job-1.odb,loading,Increment      1: Step Time =    1.000,"PART-1-1",          1855,  -20.0000E-03,   200.000E-03,       1.65000,NA,NA,"",  -20.0000E-03,   200.000E-03,       1.65000,   108.487E-03
C:/Users/touze/project/Shear_centre/strip/Job-1.odb,loading,Increment      1: Step Time =    1.000,"PART-1-1",          1854,  -20.0000E-03,      250.E-03,       1.65000,NA,NA,"",  -20.0000E-03,      250.E-03,       1.65000,   77.4892E-03
C:/Users/touze/project/Shear_centre/strip/Job-1.odb,loading,Increment      1: Step Time =    1.000,"PART-1-1",          1853,  -20.0000E-03,   300.000E-03,       1.65000,NA,NA,"",  -20.0000E-03,   300.000E-03,       1.65000,   107.156E-03
C:/Users/touze/project/Shear_centre/strip/Job-1.odb,loading,Increment      1: Step Time =    1.000,"PART-1-1",          1852,  -20.0000E-03,   350.000E-03,       1.65000,NA,NA,"",  -20.0000E-03,   350.000E-03,       1.65000,   171.409E-03
C:/Users/touze/project/Shear_centre/strip/Job-1.odb,loading,Increment      1: Step Time =    1.000,"PART-1-1",          1851,  -20.0000E-03,   400.000E-03,       1.65000,NA,NA,"",  -20.0000E-03,   400.000E-03,       1.65000,   233.954E-03
C:/Users/touze/project/Shear_centre/strip/Job-1.odb,loading,Increment      1: Step Time =    1.000,"PART-1-1",          1850,  -20.0000E-03,   450.000E-03,       1.65000,NA,NA,"",  -20.0000E-03,   450.000E-03,       1.65000,   278.874E-03
C:/Users/touze/project/Shear_centre/strip/Job-1.odb,loading,Increment      1: Step Time =    1.000,"PART-1-1",          1849,  -20.0000E-03,      500.E-03,       1.65000,NA,NA,"",  -20.0000E-03,      500.E-03,       1.65000,   295.311E-03
C:/Users/touze/project/Shear_centre/strip/Job-1.odb,loading,Increment      1: Step Time =    1.000,"PART-1-1",           571,   20.0000E-03,   350.000E-03,       1.65000,NA,NA,"",   20.0000E-03,   350.000E-03,       1.65000,   171.409E-03
C:/Users/touze/project/Shear_centre/strip/Job-1.odb,loading,Increment      1: Step Time =    1.000,"PART-1-1",           572,   20.0000E-03,   300.000E-03,       1.65000,NA,NA,"",   20.0000E-03,   300.000E-03,       1.65000,   107.156E-03
C:/Users/touze/project/Shear_centre/strip/Job-1.odb,loading,Increment      1: Step Time =    1.000,"PART-1-1",           573,   20.0000E-03,      250.E-03,       1.65000,NA,NA,"",   20.0000E-03,      250.E-03,       1.65000,   77.4892E-03
C:/Users/touze/project/Shear_centre/strip/Job-1.odb,loading,Increment      1: Step Time =    1.000,"PART-1-1",           574,   20.0000E-03,   200.000E-03,       1.65000,NA,NA,"",   20.0000E-03,   200.000E-03,       1.65000,   108.487E-03
C:/Users/touze/project/Shear_centre/strip/Job-1.odb,loading,Increment      1: Step Time =    1.000,"PART-1-1",           575,   20.0000E-03,   150.000E-03,       1.65000,NA,NA,"",   20.0000E-03,   150.000E-03,       1.65000,   172.944E-03
C:/Users/touze/project/Shear_centre/strip/Job-1.odb,loading,Increment      1: Step Time =    1.000,"PART-1-1",           576,   20.0000E-03,   100.000E-03,       1.65000,NA,NA,"",   20.0000E-03,   100.000E-03,       1.65000,   235.260E-03
C:/Users/touze/project/Shear_centre/strip/Job-1.odb,loading,Increment      1: Step Time =    1.000,"PART-1-1",           577,   20.0000E-03,   50.0000E-03,       1.65000,NA,NA,"",   20.0000E-03,   50.0000E-03,       1.65000,   279.935E-03
C:/Users/touze/project/Shear_centre/strip/Job-1.odb,loading,Increment      1: Step Time =    1.000,"PART-1-1",           578,   20.0000E-03,            0.,       1.65000,NA,NA,"",   20.0000E-03,            0.,       1.65000,   296.277E-03
C:/Users/touze/project/Shear_centre/strip/Job-1.odb,loading,Increment      1: Step Time =    1.000,"PART-1-1",           569,   20.0000E-03,   450.000E-03,       1.65000,NA,NA,"",   20.0000E-03,   450.000E-03,       1.65000,   278.874E-03
C:/Users/touze/project/Shear_centre/strip/Job-1.odb,loading,Increment      1: Step Time =    1.000,"PART-1-1",           579,   20.0000E-03,  -50.0000E-03,       1.65000,NA,NA,"",   20.0000E-03,  -50.0000E-03,       1.65000,   279.935E-03
C:/Users/touze/project/Shear_centre/strip/Job-1.odb,loading,Increment      1: Step Time =    1.000,"PART-1-1",           580,   20.0000E-03,  -100.000E-03,       1.65000,NA,NA,"",   20.0000E-03,  -100.000E-03,       1.65000,   235.260E-03
C:/Users/touze/project/Shear_centre/strip/Job-1.odb,loading,Increment      1: Step Time =    1.000,"PART-1-1",           581,   20.0000E-03,  -150.000E-03,       1.65000,NA,NA,"",   20.0000E-03,  -150.000E-03,       1.65000,   172.944E-03
C:/Users/touze/project/Shear_centre/strip/Job-1.odb,loading,Increment      1: Step Time =    1.000,"PART-1-1",           582,   20.0000E-03,  -200.000E-03,       1.65000,NA,NA,"",   20.0000E-03,  -200.000E-03,       1.65000,   108.487E-03
C:/Users/touze/project/Shear_centre/strip/Job-1.odb,loading,Increment      1: Step Time =    1.000,"PART-1-1",           583,   20.0000E-03,     -250.E-03,       1.65000,NA,NA,"",   20.0000E-03,     -250.E-03,       1.65000,   77.4892E-03
C:/Users/touze/project/Shear_centre/strip/Job-1.odb,loading,Increment      1: Step Time =    1.000,"PART-1-1",           584,   20.0000E-03,  -300.000E-03,       1.65000,NA,NA,"",   20.0000E-03,  -300.000E-03,       1.65000,   107.156E-03
C:/Users/touze/project/Shear_centre/strip/Job-1.odb,loading,Increment      1: Step Time =    1.000,"PART-1-1",           585,   20.0000E-03,  -350.000E-03,       1.65000,NA,NA,"",   20.0000E-03,  -350.000E-03,       1.65000,   171.409E-03
C:/Users/touze/project/Shear_centre/strip/Job-1.odb,loading,Increment      1: Step Time =    1.000,"PART-1-1",           586,   20.0000E-03,  -400.000E-03,       1.65000,NA,NA,"",   20.0000E-03,  -400.000E-03,       1.65000,   233.954E-03
C:/Users/touze/project/Shear_centre/strip/Job-1.odb,loading,Increment      1: Step Time =    1.000,"PART-1-1",           587,   20.0000E-03,  -450.000E-03,       1.65000,NA,NA,"",   20.0000E-03,  -450.000E-03,       1.65000,   278.874E-03
C:/Users/touze/project/Shear_centre/strip/Job-1.odb,loading,Increment      1: Step Time =    1.000,"PART-1-1",           588,   20.0000E-03,     -500.E-03,       1.65000,NA,NA,"",   20.0000E-03,     -500.E-03,       1.65000,   295.311E-03
C:/Users/touze/project/Shear_centre/strip/Job-1.odb,loading,Increment      1: Step Time =    1.000,"PART-1-1",          1830,  -20.0000E-03,   400.000E-03,       1.70000,NA,NA,"",  -20.0000E-03,   400.000E-03,       1.70000,   224.540E-03
C:/Users/touze/project/Shear_centre/strip/Job-1.odb,loading,Increment      1: Step Time =    1.000,"PART-1-1",          1831,  -20.0000E-03,   350.000E-03,       1.70000,NA,NA,"",  -20.0000E-03,   350.000E-03,       1.70000,   165.087E-03
C:/Users/touze/project/Shear_centre/strip/Job-1.odb,loading,Increment      1: Step Time =    1.000,"PART-1-1",          1832,  -20.0000E-03,   300.000E-03,       1.70000,NA,NA,"",  -20.0000E-03,   300.000E-03,       1.70000,   104.096E-03
C:/Users/touze/project/Shear_centre/strip/Job-1.odb,loading,Increment      1: Step Time =    1.000,"PART-1-1",          1833,  -20.0000E-03,      250.E-03,       1.70000,NA,NA,"",  -20.0000E-03,      250.E-03,       1.70000,   75.9920E-03
C:/Users/touze/project/Shear_centre/strip/Job-1.odb,loading,Increment      1: Step Time =    1.000,"PART-1-1",          1834,  -20.0000E-03,   200.000E-03,       1.70000,NA,NA,"",  -20.0000E-03,   200.000E-03,       1.70000,   105.301E-03
C:/Users/touze/project/Shear_centre/strip/Job-1.odb,loading,Increment      1: Step Time =    1.000,"PART-1-1",          1835,  -20.0000E-03,   150.000E-03,       1.70000,NA,NA,"",  -20.0000E-03,   150.000E-03,       1.70000,   166.482E-03
C:/Users/touze/project/Shear_centre/strip/Job-1.odb,loading,Increment      1: Step Time =    1.000,"PART-1-1",          1836,  -20.0000E-03,   100.000E-03,       1.70000,NA,NA,"",  -20.0000E-03,   100.000E-03,       1.70000,   225.771E-03
C:/Users/touze/project/Shear_centre/strip/Job-1.odb,loading,Increment      1: Step Time =    1.000,"PART-1-1",          1837,  -20.0000E-03,   50.0000E-03,       1.70000,NA,NA,"",  -20.0000E-03,   50.0000E-03,       1.70000,   268.227E-03
C:/Users/touze/project/Shear_centre/strip/Job-1.odb,loading,Increment      1: Step Time =    1.000,"PART-1-1",          1838,  -20.0000E-03,            0.,       1.70000,NA,NA,"",  -20.0000E-03,            0.,       1.70000,   283.739E-03
C:/Users/touze/project/Shear_centre/strip/Job-1.odb,loading,Increment      1: Step Time =    1.000,"PART-1-1",          1839,  -20.0000E-03,  -50.0000E-03,       1.70000,NA,NA,"",  -20.0000E-03,  -50.0000E-03,       1.70000,   268.227E-03
C:/Users/touze/project/Shear_centre/strip/Job-1.odb,loading,Increment      1: Step Time =    1.000,"PART-1-1",          1841,  -20.0000E-03,  -150.000E-03,       1.70000,NA,NA,"",  -20.0000E-03,  -150.000E-03,       1.70000,   166.482E-03
C:/Users/touze/project/Shear_centre/strip/Job-1.odb,loading,Increment      1: Step Time =    1.000,"PART-1-1",          1842,  -20.0000E-03,  -200.000E-03,       1.70000,NA,NA,"",  -20.0000E-03,  -200.000E-03,       1.70000,   105.301E-03
C:/Users/touze/project/Shear_centre/strip/Job-1.odb,loading,Increment      1: Step Time =    1.000,"PART-1-1",          1843,  -20.0000E-03,     -250.E-03,       1.70000,NA,NA,"",  -20.0000E-03,     -250.E-03,       1.70000,   75.9920E-03
C:/Users/touze/project/Shear_centre/strip/Job-1.odb,loading,Increment      1: Step Time =    1.000,"PART-1-1",          1844,  -20.0000E-03,  -300.000E-03,       1.70000,NA,NA,"",  -20.0000E-03,  -300.000E-03,       1.70000,   104.096E-03
C:/Users/touze/project/Shear_centre/strip/Job-1.odb,loading,Increment      1: Step Time =    1.000,"PART-1-1",          1845,  -20.0000E-03,  -350.000E-03,       1.70000,NA,NA,"",  -20.0000E-03,  -350.000E-03,       1.70000,   165.087E-03
C:/Users/touze/project/Shear_centre/strip/Job-1.odb,loading,Increment      1: Step Time =    1.000,"PART-1-1",          1846,  -20.0000E-03,  -400.000E-03,       1.70000,NA,NA,"",  -20.0000E-03,  -400.000E-03,       1.70000,   224.540E-03
C:/Users/touze/project/Shear_centre/strip/Job-1.odb,loading,Increment      1: Step Time =    1.000,"PART-1-1",          1847,  -20.0000E-03,  -450.000E-03,       1.70000,NA,NA,"",  -20.0000E-03,  -450.000E-03,       1.70000,   267.114E-03
C:/Users/touze/project/Shear_centre/strip/Job-1.odb,loading,Increment      1: Step Time =    1.000,"PART-1-1",          1848,  -20.0000E-03,     -500.E-03,       1.70000,NA,NA,"",  -20.0000E-03,     -500.E-03,       1.70000,   282.650E-03
C:/Users/touze/project/Shear_centre/strip/Job-1.odb,loading,Increment      1: Step Time =    1.000,"PART-1-1",           547,   20.0000E-03,      500.E-03,       1.70000,NA,NA,"",   20.0000E-03,      500.E-03,       1.70000,   282.650E-03
C:/Users/touze/project/Shear_centre/strip/Job-1.odb,loading,Increment      1: Step Time =    1.000,"PART-1-1",          1840,  -20.0000E-03,  -100.000E-03,       1.70000,NA,NA,"",  -20.0000E-03,  -100.000E-03,       1.70000,   225.771E-03
C:/Users/touze/project/Shear_centre/strip/Job-1.odb,loading,Increment      1: Step Time =    1.000,"PART-1-1",          1829,  -20.0000E-03,   450.000E-03,       1.70000,NA,NA,"",  -20.0000E-03,   450.000E-03,       1.70000,   267.114E-03
C:/Users/touze/project/Shear_centre/strip/Job-1.odb,loading,Increment      1: Step Time =    1.000,"PART-1-1",           567,   20.0000E-03,     -500.E-03,       1.70000,NA,NA,"",   20.0000E-03,     -500.E-03,       1.70000,   282.650E-03
C:/Users/touze/project/Shear_centre/strip/Job-1.odb,loading,Increment      1: Step Time =    1.000,"PART-1-1",           566,   20.0000E-03,  -450.000E-03,       1.70000,NA,NA,"",   20.0000E-03,  -450.000E-03,       1.70000,   267.114E-03
C:/Users/touze/project/Shear_centre/strip/Job-1.odb,loading,Increment      1: Step Time =    1.000,"PART-1-1",           565,   20.0000E-03,  -400.000E-03,       1.70000,NA,NA,"",   20.0000E-03,  -400.000E-03,       1.70000,   224.540E-03
C:/Users/touze/project/Shear_centre/strip/Job-1.odb,loading,Increment      1: Step Time =    1.000,"PART-1-1",           564,   20.0000E-03,  -350.000E-03,       1.70000,NA,NA,"",   20.0000E-03,  -350.000E-03,       1.70000,   165.087E-03
C:/Users/touze/project/Shear_centre/strip/Job-1.odb,loading,Increment      1: Step Time =    1.000,"PART-1-1",           563,   20.0000E-03,  -300.000E-03,       1.70000,NA,NA,"",   20.0000E-03,  -300.000E-03,       1.70000,   104.096E-03
C:/Users/touze/project/Shear_centre/strip/Job-1.odb,loading,Increment      1: Step Time =    1.000,"PART-1-1",           562,   20.0000E-03,     -250.E-03,       1.70000,NA,NA,"",   20.0000E-03,     -250.E-03,       1.70000,   75.9920E-03
C:/Users/touze/project/Shear_centre/strip/Job-1.odb,loading,Increment      1: Step Time =    1.000,"PART-1-1",           561,   20.0000E-03,  -200.000E-03,       1.70000,NA,NA,"",   20.0000E-03,  -200.000E-03,       1.70000,   105.301E-03
C:/Users/touze/project/Shear_centre/strip/Job-1.odb,loading,Increment      1: Step Time =    1.000,"PART-1-1",           560,   20.0000E-03,  -150.000E-03,       1.70000,NA,NA,"",   20.0000E-03,  -150.000E-03,       1.70000,   166.482E-03
C:/Users/touze/project/Shear_centre/strip/Job-1.odb,loading,Increment      1: Step Time =    1.000,"PART-1-1",           559,   20.0000E-03,  -100.000E-03,       1.70000,NA,NA,"",   20.0000E-03,  -100.000E-03,       1.70000,   225.771E-03
C:/Users/touze/project/Shear_centre/strip/Job-1.odb,loading,Increment      1: Step Time =    1.000,"PART-1-1",           558,   20.0000E-03,  -50.0000E-03,       1.70000,NA,NA,"",   20.0000E-03,  -50.0000E-03,       1.70000,   268.227E-03
C:/Users/touze/project/Shear_centre/strip/Job-1.odb,loading,Increment      1: Step Time =    1.000,"PART-1-1",           557,   20.0000E-03,            0.,       1.70000,NA,NA,"",   20.0000E-03,            0.,       1.70000,   283.739E-03
C:/Users/touze/project/Shear_centre/strip/Job-1.odb,loading,Increment      1: Step Time =    1.000,"PART-1-1",           556,   20.0000E-03,   50.0000E-03,       1.70000,NA,NA,"",   20.0000E-03,   50.0000E-03,       1.70000,   268.227E-03
C:/Users/touze/project/Shear_centre/strip/Job-1.odb,loading,Increment      1: Step Time =    1.000,"PART-1-1",           555,   20.0000E-03,   100.000E-03,       1.70000,NA,NA,"",   20.0000E-03,   100.000E-03,       1.70000,   225.771E-03
C:/Users/touze/project/Shear_centre/strip/Job-1.odb,loading,Increment      1: Step Time =    1.000,"PART-1-1",           554,   20.0000E-03,   150.000E-03,       1.70000,NA,NA,"",   20.0000E-03,   150.000E-03,       1.70000,   166.482E-03
C:/Users/touze/project/Shear_centre/strip/Job-1.odb,loading,Increment      1: Step Time =    1.000,"PART-1-1",           553,   20.0000E-03,   200.000E-03,       1.70000,NA,NA,"",   20.0000E-03,   200.000E-03,       1.70000,   105.301E-03
C:/Users/touze/project/Shear_centre/strip/Job-1.odb,loading,Increment      1: Step Time =    1.000,"PART-1-1",           552,   20.0000E-03,      250.E-03,       1.70000,NA,NA,"",   20.0000E-03,      250.E-03,       1.70000,   75.9920E-03
C:/Users/touze/project/Shear_centre/strip/Job-1.odb,loading,Increment      1: Step Time =    1.000,"PART-1-1",           551,   20.0000E-03,   300.000E-03,       1.70000,NA,NA,"",   20.0000E-03,   300.000E-03,       1.70000,   104.096E-03
C:/Users/touze/project/Shear_centre/strip/Job-1.odb,loading,Increment      1: Step Time =    1.000,"PART-1-1",           550,   20.0000E-03,   350.000E-03,       1.70000,NA,NA,"",   20.0000E-03,   350.000E-03,       1.70000,   165.087E-03
C:/Users/touze/project/Shear_centre/strip/Job-1.odb,loading,Increment      1: Step Time =    1.000,"PART-1-1",           549,   20.0000E-03,   400.000E-03,       1.70000,NA,NA,"",   20.0000E-03,   400.000E-03,       1.70000,   224.540E-03
C:/Users/touze/project/Shear_centre/strip/Job-1.odb,loading,Increment      1: Step Time =    1.000,"PART-1-1",           548,   20.0000E-03,   450.000E-03,       1.70000,NA,NA,"",   20.0000E-03,   450.000E-03,       1.70000,   267.114E-03
C:/Users/touze/project/Shear_centre/strip/Job-1.odb,loading,Increment      1: Step Time =    1.000,"PART-1-1",          1828,  -20.0000E-03,      500.E-03,       1.70000,NA,NA,"",  -20.0000E-03,      500.E-03,       1.70000,   282.650E-03
C:/Users/touze/project/Shear_centre/strip/Job-1.odb,loading,Increment      1: Step Time =    1.000,"PART-1-1",          1827,  -20.0000E-03,     -500.E-03,          1.75,NA,NA,"",  -20.0000E-03,     -500.E-03,          1.75,   270.163E-03
C:/Users/touze/project/Shear_centre/strip/Job-1.odb,loading,Increment      1: Step Time =    1.000,"PART-1-1",           527,   20.0000E-03,   450.000E-03,          1.75,NA,NA,"",   20.0000E-03,   450.000E-03,          1.75,   255.510E-03
C:/Users/touze/project/Shear_centre/strip/Job-1.odb,loading,Increment      1: Step Time =    1.000,"PART-1-1",           528,   20.0000E-03,   400.000E-03,          1.75,NA,NA,"",   20.0000E-03,   400.000E-03,          1.75,   215.236E-03
C:/Users/touze/project/Shear_centre/strip/Job-1.odb,loading,Increment      1: Step Time =    1.000,"PART-1-1",           529,   20.0000E-03,   350.000E-03,          1.75,NA,NA,"",   20.0000E-03,   350.000E-03,          1.75,   158.835E-03
C:/Users/touze/project/Shear_centre/strip/Job-1.odb,loading,Increment      1: Step Time =    1.000,"PART-1-1",           530,   20.0000E-03,   300.000E-03,          1.75,NA,NA,"",   20.0000E-03,   300.000E-03,          1.75,   101.084E-03
C:/Users/touze/project/Shear_centre/strip/Job-1.odb,loading,Increment      1: Step Time =    1.000,"PART-1-1",           531,   20.0000E-03,      250.E-03,          1.75,NA,NA,"",   20.0000E-03,      250.E-03,          1.75,   74.5365E-03
C:/Users/touze/project/Shear_centre/strip/Job-1.odb,loading,Increment      1: Step Time =    1.000,"PART-1-1",           532,   20.0000E-03,   200.000E-03,          1.75,NA,NA,"",   20.0000E-03,   200.000E-03,          1.75,   102.164E-03
C:/Users/touze/project/Shear_centre/strip/Job-1.odb,loading,Increment      1: Step Time =    1.000,"PART-1-1",           533,   20.0000E-03,   150.000E-03,          1.75,NA,NA,"",   20.0000E-03,   150.000E-03,          1.75,   160.090E-03
C:/Users/touze/project/Shear_centre/strip/Job-1.odb,loading,Increment      1: Step Time =    1.000,"PART-1-1",           534,   20.0000E-03,   100.000E-03,          1.75,NA,NA,"",   20.0000E-03,   100.000E-03,          1.75,   216.391E-03
C:/Users/touze/project/Shear_centre/strip/Job-1.odb,loading,Increment      1: Step Time =    1.000,"PART-1-1",           535,   20.0000E-03,   50.0000E-03,          1.75,NA,NA,"",   20.0000E-03,   50.0000E-03,          1.75,   256.673E-03
C:/Users/touze/project/Shear_centre/strip/Job-1.odb,loading,Increment      1: Step Time =    1.000,"PART-1-1",           536,   20.0000E-03,            0.,          1.75,NA,NA,"",   20.0000E-03,            0.,          1.75,   271.373E-03
C:/Users/touze/project/Shear_centre/strip/Job-1.odb,loading,Increment      1: Step Time =    1.000,"PART-1-1",           537,   20.0000E-03,  -50.0000E-03,          1.75,NA,NA,"",   20.0000E-03,  -50.0000E-03,          1.75,   256.673E-03
C:/Users/touze/project/Shear_centre/strip/Job-1.odb,loading,Increment      1: Step Time =    1.000,"PART-1-1",           538,   20.0000E-03,  -100.000E-03,          1.75,NA,NA,"",   20.0000E-03,  -100.000E-03,          1.75,   216.391E-03
C:/Users/touze/project/Shear_centre/strip/Job-1.odb,loading,Increment      1: Step Time =    1.000,"PART-1-1",           539,   20.0000E-03,  -150.000E-03,          1.75,NA,NA,"",   20.0000E-03,  -150.000E-03,          1.75,   160.090E-03
C:/Users/touze/project/Shear_centre/strip/Job-1.odb,loading,Increment      1: Step Time =    1.000,"PART-1-1",           540,   20.0000E-03,  -200.000E-03,          1.75,NA,NA,"",   20.0000E-03,  -200.000E-03,          1.75,   102.165E-03
C:/Users/touze/project/Shear_centre/strip/Job-1.odb,loading,Increment      1: Step Time =    1.000,"PART-1-1",           541,   20.0000E-03,     -250.E-03,          1.75,NA,NA,"",   20.0000E-03,     -250.E-03,          1.75,   74.5365E-03
C:/Users/touze/project/Shear_centre/strip/Job-1.odb,loading,Increment      1: Step Time =    1.000,"PART-1-1",           542,   20.0000E-03,  -300.000E-03,          1.75,NA,NA,"",   20.0000E-03,  -300.000E-03,          1.75,   101.084E-03
C:/Users/touze/project/Shear_centre/strip/Job-1.odb,loading,Increment      1: Step Time =    1.000,"PART-1-1",           543,   20.0000E-03,  -350.000E-03,          1.75,NA,NA,"",   20.0000E-03,  -350.000E-03,          1.75,   158.835E-03
C:/Users/touze/project/Shear_centre/strip/Job-1.odb,loading,Increment      1: Step Time =    1.000,"PART-1-1",           544,   20.0000E-03,  -400.000E-03,          1.75,NA,NA,"",   20.0000E-03,  -400.000E-03,          1.75,   215.236E-03
C:/Users/touze/project/Shear_centre/strip/Job-1.odb,loading,Increment      1: Step Time =    1.000,"PART-1-1",           545,   20.0000E-03,  -450.000E-03,          1.75,NA,NA,"",   20.0000E-03,  -450.000E-03,          1.75,   255.510E-03
C:/Users/touze/project/Shear_centre/strip/Job-1.odb,loading,Increment      1: Step Time =    1.000,"PART-1-1",           546,   20.0000E-03,     -500.E-03,          1.75,NA,NA,"",   20.0000E-03,     -500.E-03,          1.75,   270.163E-03
C:/Users/touze/project/Shear_centre/strip/Job-1.odb,loading,Increment      1: Step Time =    1.000,"PART-1-1",          1807,  -20.0000E-03,      500.E-03,          1.75,NA,NA,"",  -20.0000E-03,      500.E-03,          1.75,   270.163E-03
C:/Users/touze/project/Shear_centre/strip/Job-1.odb,loading,Increment      1: Step Time =    1.000,"PART-1-1",          1808,  -20.0000E-03,   450.000E-03,          1.75,NA,NA,"",  -20.0000E-03,   450.000E-03,          1.75,   255.510E-03
C:/Users/touze/project/Shear_centre/strip/Job-1.odb,loading,Increment      1: Step Time =    1.000,"PART-1-1",          1809,  -20.0000E-03,   400.000E-03,          1.75,NA,NA,"",  -20.0000E-03,   400.000E-03,          1.75,   215.236E-03
C:/Users/touze/project/Shear_centre/strip/Job-1.odb,loading,Increment      1: Step Time =    1.000,"PART-1-1",          1810,  -20.0000E-03,   350.000E-03,          1.75,NA,NA,"",  -20.0000E-03,   350.000E-03,          1.75,   158.835E-03
C:/Users/touze/project/Shear_centre/strip/Job-1.odb,loading,Increment      1: Step Time =    1.000,"PART-1-1",          1811,  -20.0000E-03,   300.000E-03,          1.75,NA,NA,"",  -20.0000E-03,   300.000E-03,          1.75,   101.084E-03
C:/Users/touze/project/Shear_centre/strip/Job-1.odb,loading,Increment      1: Step Time =    1.000,"PART-1-1",          1812,  -20.0000E-03,      250.E-03,          1.75,NA,NA,"",  -20.0000E-03,      250.E-03,          1.75,   74.5365E-03
C:/Users/touze/project/Shear_centre/strip/Job-1.odb,loading,Increment      1: Step Time =    1.000,"PART-1-1",          1813,  -20.0000E-03,   200.000E-03,          1.75,NA,NA,"",  -20.0000E-03,   200.000E-03,          1.75,   102.164E-03
C:/Users/touze/project/Shear_centre/strip/Job-1.odb,loading,Increment      1: Step Time =    1.000,"PART-1-1",          1814,  -20.0000E-03,   150.000E-03,          1.75,NA,NA,"",  -20.0000E-03,   150.000E-03,          1.75,   160.090E-03
C:/Users/touze/project/Shear_centre/strip/Job-1.odb,loading,Increment      1: Step Time =    1.000,"PART-1-1",          1815,  -20.0000E-03,   100.000E-03,          1.75,NA,NA,"",  -20.0000E-03,   100.000E-03,          1.75,   216.391E-03
C:/Users/touze/project/Shear_centre/strip/Job-1.odb,loading,Increment      1: Step Time =    1.000,"PART-1-1",          1816,  -20.0000E-03,   50.0000E-03,          1.75,NA,NA,"",  -20.0000E-03,   50.0000E-03,          1.75,   256.673E-03
C:/Users/touze/project/Shear_centre/strip/Job-1.odb,loading,Increment      1: Step Time =    1.000,"PART-1-1",          1817,  -20.0000E-03,            0.,          1.75,NA,NA,"",  -20.0000E-03,            0.,          1.75,   271.373E-03
C:/Users/touze/project/Shear_centre/strip/Job-1.odb,loading,Increment      1: Step Time =    1.000,"PART-1-1",          1818,  -20.0000E-03,  -50.0000E-03,          1.75,NA,NA,"",  -20.0000E-03,  -50.0000E-03,          1.75,   256.673E-03
C:/Users/touze/project/Shear_centre/strip/Job-1.odb,loading,Increment      1: Step Time =    1.000,"PART-1-1",          1819,  -20.0000E-03,  -100.000E-03,          1.75,NA,NA,"",  -20.0000E-03,  -100.000E-03,          1.75,   216.391E-03
C:/Users/touze/project/Shear_centre/strip/Job-1.odb,loading,Increment      1: Step Time =    1.000,"PART-1-1",          1820,  -20.0000E-03,  -150.000E-03,          1.75,NA,NA,"",  -20.0000E-03,  -150.000E-03,          1.75,   160.090E-03
C:/Users/touze/project/Shear_centre/strip/Job-1.odb,loading,Increment      1: Step Time =    1.000,"PART-1-1",          1821,  -20.0000E-03,  -200.000E-03,          1.75,NA,NA,"",  -20.0000E-03,  -200.000E-03,          1.75,   102.165E-03
C:/Users/touze/project/Shear_centre/strip/Job-1.odb,loading,Increment      1: Step Time =    1.000,"PART-1-1",          1822,  -20.0000E-03,     -250.E-03,          1.75,NA,NA,"",  -20.0000E-03,     -250.E-03,          1.75,   74.5365E-03
C:/Users/touze/project/Shear_centre/strip/Job-1.odb,loading,Increment      1: Step Time =    1.000,"PART-1-1",          1823,  -20.0000E-03,  -300.000E-03,          1.75,NA,NA,"",  -20.0000E-03,  -300.000E-03,          1.75,   101.084E-03
C:/Users/touze/project/Shear_centre/strip/Job-1.odb,loading,Increment      1: Step Time =    1.000,"PART-1-1",          1824,  -20.0000E-03,  -350.000E-03,          1.75,NA,NA,"",  -20.0000E-03,  -350.000E-03,          1.75,   158.835E-03
C:/Users/touze/project/Shear_centre/strip/Job-1.odb,loading,Increment      1: Step Time =    1.000,"PART-1-1",          1825,  -20.0000E-03,  -400.000E-03,          1.75,NA,NA,"",  -20.0000E-03,  -400.000E-03,          1.75,   215.236E-03
C:/Users/touze/project/Shear_centre/strip/Job-1.odb,loading,Increment      1: Step Time =    1.000,"PART-1-1",          1826,  -20.0000E-03,  -450.000E-03,          1.75,NA,NA,"",  -20.0000E-03,  -450.000E-03,          1.75,   255.510E-03
C:/Users/touze/project/Shear_centre/strip/Job-1.odb,loading,Increment      1: Step Time =    1.000,"PART-1-1",           526,   20.0000E-03,      500.E-03,          1.75,NA,NA,"",   20.0000E-03,      500.E-03,          1.75,   270.163E-03
C:/Users/touze/project/Shear_centre/strip/Job-1.odb,loading,Increment      1: Step Time =    1.000,"PART-1-1",          1786,  -20.0000E-03,      500.E-03,       1.80000,NA,NA,"",  -20.0000E-03,      500.E-03,       1.80000,   257.843E-03
C:/Users/touze/project/Shear_centre/strip/Job-1.odb,loading,Increment      1: Step Time =    1.000,"PART-1-1",          1787,  -20.0000E-03,   450.000E-03,       1.80000,NA,NA,"",  -20.0000E-03,   450.000E-03,       1.80000,   244.052E-03
C:/Users/touze/project/Shear_centre/strip/Job-1.odb,loading,Increment      1: Step Time =    1.000,"PART-1-1",          1788,  -20.0000E-03,   400.000E-03,       1.80000,NA,NA,"",  -20.0000E-03,   400.000E-03,       1.80000,   206.035E-03
C:/Users/touze/project/Shear_centre/strip/Job-1.odb,loading,Increment      1: Step Time =    1.000,"PART-1-1",          1789,  -20.0000E-03,   350.000E-03,       1.80000,NA,NA,"",  -20.0000E-03,   350.000E-03,       1.80000,   152.652E-03
C:/Users/touze/project/Shear_centre/strip/Job-1.odb,loading,Increment      1: Step Time =    1.000,"PART-1-1",          1790,  -20.0000E-03,   300.000E-03,       1.80000,NA,NA,"",  -20.0000E-03,   300.000E-03,       1.80000,   98.1223E-03
C:/Users/touze/project/Shear_centre/strip/Job-1.odb,loading,Increment      1: Step Time =    1.000,"PART-1-1",          1791,  -20.0000E-03,      250.E-03,       1.80000,NA,NA,"",  -20.0000E-03,      250.E-03,       1.80000,   73.1243E-03
C:/Users/touze/project/Shear_centre/strip/Job-1.odb,loading,Increment      1: Step Time =    1.000,"PART-1-1",          1792,  -20.0000E-03,   200.000E-03,       1.80000,NA,NA,"",  -20.0000E-03,   200.000E-03,       1.80000,   99.0810E-03
C:/Users/touze/project/Shear_centre/strip/Job-1.odb,loading,Increment      1: Step Time =    1.000,"PART-1-1",          1793,  -20.0000E-03,   150.000E-03,       1.80000,NA,NA,"",  -20.0000E-03,   150.000E-03,       1.80000,   153.769E-03
C:/Users/touze/project/Shear_centre/strip/Job-1.odb,loading,Increment      1: Step Time =    1.000,"PART-1-1",          1794,  -20.0000E-03,   100.000E-03,       1.80000,NA,NA,"",  -20.0000E-03,   100.000E-03,       1.80000,   207.115E-03
C:/Users/touze/project/Shear_centre/strip/Job-1.odb,loading,Increment      1: Step Time =    1.000,"PART-1-1",          1795,  -20.0000E-03,   50.0000E-03,       1.80000,NA,NA,"",  -20.0000E-03,   50.0000E-03,       1.80000,   245.268E-03
C:/Users/touze/project/Shear_centre/strip/Job-1.odb,loading,Increment      1: Step Time =    1.000,"PART-1-1",          1796,  -20.0000E-03,            0.,       1.80000,NA,NA,"",  -20.0000E-03,            0.,       1.80000,   259.180E-03
C:/Users/touze/project/Shear_centre/strip/Job-1.odb,loading,Increment      1: Step Time =    1.000,"PART-1-1",          1797,  -20.0000E-03,  -50.0000E-03,       1.80000,NA,NA,"",  -20.0000E-03,  -50.0000E-03,       1.80000,   245.268E-03
C:/Users/touze/project/Shear_centre/strip/Job-1.odb,loading,Increment      1: Step Time =    1.000,"PART-1-1",          1798,  -20.0000E-03,  -100.000E-03,       1.80000,NA,NA,"",  -20.0000E-03,  -100.000E-03,       1.80000,   207.115E-03
C:/Users/touze/project/Shear_centre/strip/Job-1.odb,loading,Increment      1: Step Time =    1.000,"PART-1-1",          1799,  -20.0000E-03,  -150.000E-03,       1.80000,NA,NA,"",  -20.0000E-03,  -150.000E-03,       1.80000,   153.769E-03
C:/Users/touze/project/Shear_centre/strip/Job-1.odb,loading,Increment      1: Step Time =    1.000,"PART-1-1",          1800,  -20.0000E-03,  -200.000E-03,       1.80000,NA,NA,"",  -20.0000E-03,  -200.000E-03,       1.80000,   99.0810E-03
C:/Users/touze/project/Shear_centre/strip/Job-1.odb,loading,Increment      1: Step Time =    1.000,"PART-1-1",          1801,  -20.0000E-03,     -250.E-03,       1.80000,NA,NA,"",  -20.0000E-03,     -250.E-03,       1.80000,   73.1243E-03
C:/Users/touze/project/Shear_centre/strip/Job-1.odb,loading,Increment      1: Step Time =    1.000,"PART-1-1",          1802,  -20.0000E-03,  -300.000E-03,       1.80000,NA,NA,"",  -20.0000E-03,  -300.000E-03,       1.80000,   98.1223E-03
C:/Users/touze/project/Shear_centre/strip/Job-1.odb,loading,Increment      1: Step Time =    1.000,"PART-1-1",          1803,  -20.0000E-03,  -350.000E-03,       1.80000,NA,NA,"",  -20.0000E-03,  -350.000E-03,       1.80000,   152.652E-03
C:/Users/touze/project/Shear_centre/strip/Job-1.odb,loading,Increment      1: Step Time =    1.000,"PART-1-1",          1804,  -20.0000E-03,  -400.000E-03,       1.80000,NA,NA,"",  -20.0000E-03,  -400.000E-03,       1.80000,   206.035E-03
C:/Users/touze/project/Shear_centre/strip/Job-1.odb,loading,Increment      1: Step Time =    1.000,"PART-1-1",          1805,  -20.0000E-03,  -450.000E-03,       1.80000,NA,NA,"",  -20.0000E-03,  -450.000E-03,       1.80000,   244.052E-03
C:/Users/touze/project/Shear_centre/strip/Job-1.odb,loading,Increment      1: Step Time =    1.000,"PART-1-1",          1806,  -20.0000E-03,     -500.E-03,       1.80000,NA,NA,"",  -20.0000E-03,     -500.E-03,       1.80000,   257.843E-03
C:/Users/touze/project/Shear_centre/strip/Job-1.odb,loading,Increment      1: Step Time =    1.000,"PART-1-1",           525,   20.0000E-03,     -500.E-03,       1.80000,NA,NA,"",   20.0000E-03,     -500.E-03,       1.80000,   257.843E-03
C:/Users/touze/project/Shear_centre/strip/Job-1.odb,loading,Increment      1: Step Time =    1.000,"PART-1-1",           524,   20.0000E-03,  -450.000E-03,       1.80000,NA,NA,"",   20.0000E-03,  -450.000E-03,       1.80000,   244.052E-03
C:/Users/touze/project/Shear_centre/strip/Job-1.odb,loading,Increment      1: Step Time =    1.000,"PART-1-1",           523,   20.0000E-03,  -400.000E-03,       1.80000,NA,NA,"",   20.0000E-03,  -400.000E-03,       1.80000,   206.035E-03
C:/Users/touze/project/Shear_centre/strip/Job-1.odb,loading,Increment      1: Step Time =    1.000,"PART-1-1",           522,   20.0000E-03,  -350.000E-03,       1.80000,NA,NA,"",   20.0000E-03,  -350.000E-03,       1.80000,   152.652E-03
C:/Users/touze/project/Shear_centre/strip/Job-1.odb,loading,Increment      1: Step Time =    1.000,"PART-1-1",           521,   20.0000E-03,  -300.000E-03,       1.80000,NA,NA,"",   20.0000E-03,  -300.000E-03,       1.80000,   98.1223E-03
C:/Users/touze/project/Shear_centre/strip/Job-1.odb,loading,Increment      1: Step Time =    1.000,"PART-1-1",           520,   20.0000E-03,     -250.E-03,       1.80000,NA,NA,"",   20.0000E-03,     -250.E-03,       1.80000,   73.1243E-03
C:/Users/touze/project/Shear_centre/strip/Job-1.odb,loading,Increment      1: Step Time =    1.000,"PART-1-1",           519,   20.0000E-03,  -200.000E-03,       1.80000,NA,NA,"",   20.0000E-03,  -200.000E-03,       1.80000,   99.0810E-03
C:/Users/touze/project/Shear_centre/strip/Job-1.odb,loading,Increment      1: Step Time =    1.000,"PART-1-1",           518,   20.0000E-03,  -150.000E-03,       1.80000,NA,NA,"",   20.0000E-03,  -150.000E-03,       1.80000,   153.769E-03
C:/Users/touze/project/Shear_centre/strip/Job-1.odb,loading,Increment      1: Step Time =    1.000,"PART-1-1",           517,   20.0000E-03,  -100.000E-03,       1.80000,NA,NA,"",   20.0000E-03,  -100.000E-03,       1.80000,   207.115E-03
C:/Users/touze/project/Shear_centre/strip/Job-1.odb,loading,Increment      1: Step Time =    1.000,"PART-1-1",           516,   20.0000E-03,  -50.0000E-03,       1.80000,NA,NA,"",   20.0000E-03,  -50.0000E-03,       1.80000,   245.268E-03
C:/Users/touze/project/Shear_centre/strip/Job-1.odb,loading,Increment      1: Step Time =    1.000,"PART-1-1",           515,   20.0000E-03,            0.,       1.80000,NA,NA,"",   20.0000E-03,            0.,       1.80000,   259.180E-03
C:/Users/touze/project/Shear_centre/strip/Job-1.odb,loading,Increment      1: Step Time =    1.000,"PART-1-1",           514,   20.0000E-03,   50.0000E-03,       1.80000,NA,NA,"",   20.0000E-03,   50.0000E-03,       1.80000,   245.268E-03
C:/Users/touze/project/Shear_centre/strip/Job-1.odb,loading,Increment      1: Step Time =    1.000,"PART-1-1",           513,   20.0000E-03,   100.000E-03,       1.80000,NA,NA,"",   20.0000E-03,   100.000E-03,       1.80000,   207.115E-03
C:/Users/touze/project/Shear_centre/strip/Job-1.odb,loading,Increment      1: Step Time =    1.000,"PART-1-1",           512,   20.0000E-03,   150.000E-03,       1.80000,NA,NA,"",   20.0000E-03,   150.000E-03,       1.80000,   153.769E-03
C:/Users/touze/project/Shear_centre/strip/Job-1.odb,loading,Increment      1: Step Time =    1.000,"PART-1-1",           511,   20.0000E-03,   200.000E-03,       1.80000,NA,NA,"",   20.0000E-03,   200.000E-03,       1.80000,   99.0810E-03
C:/Users/touze/project/Shear_centre/strip/Job-1.odb,loading,Increment      1: Step Time =    1.000,"PART-1-1",           510,   20.0000E-03,      250.E-03,       1.80000,NA,NA,"",   20.0000E-03,      250.E-03,       1.80000,   73.1243E-03
C:/Users/touze/project/Shear_centre/strip/Job-1.odb,loading,Increment      1: Step Time =    1.000,"PART-1-1",           509,   20.0000E-03,   300.000E-03,       1.80000,NA,NA,"",   20.0000E-03,   300.000E-03,       1.80000,   98.1223E-03
C:/Users/touze/project/Shear_centre/strip/Job-1.odb,loading,Increment      1: Step Time =    1.000,"PART-1-1",           508,   20.0000E-03,   350.000E-03,       1.80000,NA,NA,"",   20.0000E-03,   350.000E-03,       1.80000,   152.652E-03
C:/Users/touze/project/Shear_centre/strip/Job-1.odb,loading,Increment      1: Step Time =    1.000,"PART-1-1",           507,   20.0000E-03,   400.000E-03,       1.80000,NA,NA,"",   20.0000E-03,   400.000E-03,       1.80000,   206.035E-03
C:/Users/touze/project/Shear_centre/strip/Job-1.odb,loading,Increment      1: Step Time =    1.000,"PART-1-1",           506,   20.0000E-03,   450.000E-03,       1.80000,NA,NA,"",   20.0000E-03,   450.000E-03,       1.80000,   244.052E-03
C:/Users/touze/project/Shear_centre/strip/Job-1.odb,loading,Increment      1: Step Time =    1.000,"PART-1-1",           505,   20.0000E-03,      500.E-03,       1.80000,NA,NA,"",   20.0000E-03,      500.E-03,       1.80000,   257.843E-03
C:/Users/touze/project/Shear_centre/strip/Job-1.odb,loading,Increment      1: Step Time =    1.000,"PART-1-1",          1785,  -20.0000E-03,     -500.E-03,       1.85000,NA,NA,"",  -20.0000E-03,     -500.E-03,       1.85000,   245.681E-03
C:/Users/touze/project/Shear_centre/strip/Job-1.odb,loading,Increment      1: Step Time =    1.000,"PART-1-1",          1783,  -20.0000E-03,  -400.000E-03,       1.85000,NA,NA,"",  -20.0000E-03,  -400.000E-03,       1.85000,   196.943E-03
C:/Users/touze/project/Shear_centre/strip/Job-1.odb,loading,Increment      1: Step Time =    1.000,"PART-1-1",          1782,  -20.0000E-03,  -350.000E-03,       1.85000,NA,NA,"",  -20.0000E-03,  -350.000E-03,       1.85000,   146.542E-03
C:/Users/touze/project/Shear_centre/strip/Job-1.odb,loading,Increment      1: Step Time =    1.000,"PART-1-1",          1781,  -20.0000E-03,  -300.000E-03,       1.85000,NA,NA,"",  -20.0000E-03,  -300.000E-03,       1.85000,   95.2104E-03
C:/Users/touze/project/Shear_centre/strip/Job-1.odb,loading,Increment      1: Step Time =    1.000,"PART-1-1",          1780,  -20.0000E-03,     -250.E-03,       1.85000,NA,NA,"",  -20.0000E-03,     -250.E-03,       1.85000,   71.7560E-03
C:/Users/touze/project/Shear_centre/strip/Job-1.odb,loading,Increment      1: Step Time =    1.000,"PART-1-1",          1779,  -20.0000E-03,  -200.000E-03,       1.85000,NA,NA,"",  -20.0000E-03,  -200.000E-03,       1.85000,   96.0516E-03
C:/Users/touze/project/Shear_centre/strip/Job-1.odb,loading,Increment      1: Step Time =    1.000,"PART-1-1",          1778,  -20.0000E-03,  -150.000E-03,       1.85000,NA,NA,"",  -20.0000E-03,  -150.000E-03,       1.85000,   147.522E-03
C:/Users/touze/project/Shear_centre/strip/Job-1.odb,loading,Increment      1: Step Time =    1.000,"PART-1-1",          1777,  -20.0000E-03,  -100.000E-03,       1.85000,NA,NA,"",  -20.0000E-03,  -100.000E-03,       1.85000,   197.945E-03
C:/Users/touze/project/Shear_centre/strip/Job-1.odb,loading,Increment      1: Step Time =    1.000,"PART-1-1",          1776,  -20.0000E-03,  -50.0000E-03,       1.85000,NA,NA,"",  -20.0000E-03,  -50.0000E-03,       1.85000,   234.005E-03
C:/Users/touze/project/Shear_centre/strip/Job-1.odb,loading,Increment      1: Step Time =    1.000,"PART-1-1",          1775,  -20.0000E-03,            0.,       1.85000,NA,NA,"",  -20.0000E-03,            0.,       1.85000,   247.143E-03
C:/Users/touze/project/Shear_centre/strip/Job-1.odb,loading,Increment      1: Step Time =    1.000,"PART-1-1",          1774,  -20.0000E-03,   50.0000E-03,       1.85000,NA,NA,"",  -20.0000E-03,   50.0000E-03,       1.85000,   234.005E-03
C:/Users/touze/project/Shear_centre/strip/Job-1.odb,loading,Increment      1: Step Time =    1.000,"PART-1-1",          1773,  -20.0000E-03,   100.000E-03,       1.85000,NA,NA,"",  -20.0000E-03,   100.000E-03,       1.85000,   197.945E-03
C:/Users/touze/project/Shear_centre/strip/Job-1.odb,loading,Increment      1: Step Time =    1.000,"PART-1-1",          1772,  -20.0000E-03,   150.000E-03,       1.85000,NA,NA,"",  -20.0000E-03,   150.000E-03,       1.85000,   147.522E-03
C:/Users/touze/project/Shear_centre/strip/Job-1.odb,loading,Increment      1: Step Time =    1.000,"PART-1-1",          1771,  -20.0000E-03,   200.000E-03,       1.85000,NA,NA,"",  -20.0000E-03,   200.000E-03,       1.85000,   96.0516E-03
C:/Users/touze/project/Shear_centre/strip/Job-1.odb,loading,Increment      1: Step Time =    1.000,"PART-1-1",          1770,  -20.0000E-03,      250.E-03,       1.85000,NA,NA,"",  -20.0000E-03,      250.E-03,       1.85000,   71.7560E-03
C:/Users/touze/project/Shear_centre/strip/Job-1.odb,loading,Increment      1: Step Time =    1.000,"PART-1-1",          1769,  -20.0000E-03,   300.000E-03,       1.85000,NA,NA,"",  -20.0000E-03,   300.000E-03,       1.85000,   95.2104E-03
C:/Users/touze/project/Shear_centre/strip/Job-1.odb,loading,Increment      1: Step Time =    1.000,"PART-1-1",          1768,  -20.0000E-03,   350.000E-03,       1.85000,NA,NA,"",  -20.0000E-03,   350.000E-03,       1.85000,   146.542E-03
C:/Users/touze/project/Shear_centre/strip/Job-1.odb,loading,Increment      1: Step Time =    1.000,"PART-1-1",          1767,  -20.0000E-03,   400.000E-03,       1.85000,NA,NA,"",  -20.0000E-03,   400.000E-03,       1.85000,   196.943E-03
C:/Users/touze/project/Shear_centre/strip/Job-1.odb,loading,Increment      1: Step Time =    1.000,"PART-1-1",          1766,  -20.0000E-03,   450.000E-03,       1.85000,NA,NA,"",  -20.0000E-03,   450.000E-03,       1.85000,   232.738E-03
C:/Users/touze/project/Shear_centre/strip/Job-1.odb,loading,Increment      1: Step Time =    1.000,"PART-1-1",          1765,  -20.0000E-03,      500.E-03,       1.85000,NA,NA,"",  -20.0000E-03,      500.E-03,       1.85000,   245.681E-03
C:/Users/touze/project/Shear_centre/strip/Job-1.odb,loading,Increment      1: Step Time =    1.000,"PART-1-1",           504,   20.0000E-03,     -500.E-03,       1.85000,NA,NA,"",   20.0000E-03,     -500.E-03,       1.85000,   245.681E-03
C:/Users/touze/project/Shear_centre/strip/Job-1.odb,loading,Increment      1: Step Time =    1.000,"PART-1-1",           484,   20.0000E-03,      500.E-03,       1.85000,NA,NA,"",   20.0000E-03,      500.E-03,       1.85000,   245.681E-03
C:/Users/touze/project/Shear_centre/strip/Job-1.odb,loading,Increment      1: Step Time =    1.000,"PART-1-1",           485,   20.0000E-03,   450.000E-03,       1.85000,NA,NA,"",   20.0000E-03,   450.000E-03,       1.85000,   232.738E-03
C:/Users/touze/project/Shear_centre/strip/Job-1.odb,loading,Increment      1: Step Time =    1.000,"PART-1-1",           486,   20.0000E-03,   400.000E-03,       1.85000,NA,NA,"",   20.0000E-03,   400.000E-03,       1.85000,   196.943E-03
C:/Users/touze/project/Shear_centre/strip/Job-1.odb,loading,Increment      1: Step Time =    1.000,"PART-1-1",           487,   20.0000E-03,   350.000E-03,       1.85000,NA,NA,"",   20.0000E-03,   350.000E-03,       1.85000,   146.542E-03
C:/Users/touze/project/Shear_centre/strip/Job-1.odb,loading,Increment      1: Step Time =    1.000,"PART-1-1",           488,   20.0000E-03,   300.000E-03,       1.85000,NA,NA,"",   20.0000E-03,   300.000E-03,       1.85000,   95.2104E-03
C:/Users/touze/project/Shear_centre/strip/Job-1.odb,loading,Increment      1: Step Time =    1.000,"PART-1-1",           489,   20.0000E-03,      250.E-03,       1.85000,NA,NA,"",   20.0000E-03,      250.E-03,       1.85000,   71.7560E-03
C:/Users/touze/project/Shear_centre/strip/Job-1.odb,loading,Increment      1: Step Time =    1.000,"PART-1-1",           490,   20.0000E-03,   200.000E-03,       1.85000,NA,NA,"",   20.0000E-03,   200.000E-03,       1.85000,   96.0516E-03
C:/Users/touze/project/Shear_centre/strip/Job-1.odb,loading,Increment      1: Step Time =    1.000,"PART-1-1",           491,   20.0000E-03,   150.000E-03,       1.85000,NA,NA,"",   20.0000E-03,   150.000E-03,       1.85000,   147.522E-03
C:/Users/touze/project/Shear_centre/strip/Job-1.odb,loading,Increment      1: Step Time =    1.000,"PART-1-1",           492,   20.0000E-03,   100.000E-03,       1.85000,NA,NA,"",   20.0000E-03,   100.000E-03,       1.85000,   197.945E-03
C:/Users/touze/project/Shear_centre/strip/Job-1.odb,loading,Increment      1: Step Time =    1.000,"PART-1-1",           493,   20.0000E-03,   50.0000E-03,       1.85000,NA,NA,"",   20.0000E-03,   50.0000E-03,       1.85000,   234.005E-03
C:/Users/touze/project/Shear_centre/strip/Job-1.odb,loading,Increment      1: Step Time =    1.000,"PART-1-1",           494,   20.0000E-03,            0.,       1.85000,NA,NA,"",   20.0000E-03,            0.,       1.85000,   247.143E-03
C:/Users/touze/project/Shear_centre/strip/Job-1.odb,loading,Increment      1: Step Time =    1.000,"PART-1-1",           495,   20.0000E-03,  -50.0000E-03,       1.85000,NA,NA,"",   20.0000E-03,  -50.0000E-03,       1.85000,   234.005E-03
C:/Users/touze/project/Shear_centre/strip/Job-1.odb,loading,Increment      1: Step Time =    1.000,"PART-1-1",           496,   20.0000E-03,  -100.000E-03,       1.85000,NA,NA,"",   20.0000E-03,  -100.000E-03,       1.85000,   197.945E-03
C:/Users/touze/project/Shear_centre/strip/Job-1.odb,loading,Increment      1: Step Time =    1.000,"PART-1-1",           497,   20.0000E-03,  -150.000E-03,       1.85000,NA,NA,"",   20.0000E-03,  -150.000E-03,       1.85000,   147.522E-03
C:/Users/touze/project/Shear_centre/strip/Job-1.odb,loading,Increment      1: Step Time =    1.000,"PART-1-1",           498,   20.0000E-03,  -200.000E-03,       1.85000,NA,NA,"",   20.0000E-03,  -200.000E-03,       1.85000,   96.0516E-03
C:/Users/touze/project/Shear_centre/strip/Job-1.odb,loading,Increment      1: Step Time =    1.000,"PART-1-1",           499,   20.0000E-03,     -250.E-03,       1.85000,NA,NA,"",   20.0000E-03,     -250.E-03,       1.85000,   71.7560E-03
C:/Users/touze/project/Shear_centre/strip/Job-1.odb,loading,Increment      1: Step Time =    1.000,"PART-1-1",           500,   20.0000E-03,  -300.000E-03,       1.85000,NA,NA,"",   20.0000E-03,  -300.000E-03,       1.85000,   95.2104E-03
C:/Users/touze/project/Shear_centre/strip/Job-1.odb,loading,Increment      1: Step Time =    1.000,"PART-1-1",           501,   20.0000E-03,  -350.000E-03,       1.85000,NA,NA,"",   20.0000E-03,  -350.000E-03,       1.85000,   146.542E-03
C:/Users/touze/project/Shear_centre/strip/Job-1.odb,loading,Increment      1: Step Time =    1.000,"PART-1-1",           502,   20.0000E-03,  -400.000E-03,       1.85000,NA,NA,"",   20.0000E-03,  -400.000E-03,       1.85000,   196.943E-03
C:/Users/touze/project/Shear_centre/strip/Job-1.odb,loading,Increment      1: Step Time =    1.000,"PART-1-1",           503,   20.0000E-03,  -450.000E-03,       1.85000,NA,NA,"",   20.0000E-03,  -450.000E-03,       1.85000,   232.738E-03
C:/Users/touze/project/Shear_centre/strip/Job-1.odb,loading,Increment      1: Step Time =    1.000,"PART-1-1",          1784,  -20.0000E-03,  -450.000E-03,       1.85000,NA,NA,"",  -20.0000E-03,  -450.000E-03,       1.85000,   232.738E-03
C:/Users/touze/project/Shear_centre/strip/Job-1.odb,loading,Increment      1: Step Time =    1.000,"PART-1-1",          1763,  -20.0000E-03,  -450.000E-03,       1.90000,NA,NA,"",  -20.0000E-03,  -450.000E-03,       1.90000,   221.554E-03
C:/Users/touze/project/Shear_centre/strip/Job-1.odb,loading,Increment      1: Step Time =    1.000,"PART-1-1",          1762,  -20.0000E-03,  -400.000E-03,       1.90000,NA,NA,"",  -20.0000E-03,  -400.000E-03,       1.90000,   187.948E-03
C:/Users/touze/project/Shear_centre/strip/Job-1.odb,loading,Increment      1: Step Time =    1.000,"PART-1-1",          1761,  -20.0000E-03,  -350.000E-03,       1.90000,NA,NA,"",  -20.0000E-03,  -350.000E-03,       1.90000,   140.503E-03
C:/Users/touze/project/Shear_centre/strip/Job-1.odb,loading,Increment      1: Step Time =    1.000,"PART-1-1",          1760,  -20.0000E-03,  -300.000E-03,       1.90000,NA,NA,"",  -20.0000E-03,  -300.000E-03,       1.90000,   92.3524E-03
C:/Users/touze/project/Shear_centre/strip/Job-1.odb,loading,Increment      1: Step Time =    1.000,"PART-1-1",          1759,  -20.0000E-03,     -250.E-03,       1.90000,NA,NA,"",  -20.0000E-03,     -250.E-03,       1.90000,   70.4330E-03
C:/Users/touze/project/Shear_centre/strip/Job-1.odb,loading,Increment      1: Step Time =    1.000,"PART-1-1",          1758,  -20.0000E-03,  -200.000E-03,       1.90000,NA,NA,"",  -20.0000E-03,  -200.000E-03,       1.90000,   93.0780E-03
C:/Users/touze/project/Shear_centre/strip/Job-1.odb,loading,Increment      1: Step Time =    1.000,"PART-1-1",          1757,  -20.0000E-03,  -150.000E-03,       1.90000,NA,NA,"",  -20.0000E-03,  -150.000E-03,       1.90000,   141.347E-03
C:/Users/touze/project/Shear_centre/strip/Job-1.odb,loading,Increment      1: Step Time =    1.000,"PART-1-1",          1756,  -20.0000E-03,  -100.000E-03,       1.90000,NA,NA,"",  -20.0000E-03,  -100.000E-03,       1.90000,   188.872E-03
C:/Users/touze/project/Shear_centre/strip/Job-1.odb,loading,Increment      1: Step Time =    1.000,"PART-1-1",          1755,  -20.0000E-03,  -50.0000E-03,       1.90000,NA,NA,"",  -20.0000E-03,  -50.0000E-03,       1.90000,   222.876E-03
C:/Users/touze/project/Shear_centre/strip/Job-1.odb,loading,Increment      1: Step Time =    1.000,"PART-1-1",          1754,  -20.0000E-03,            0.,       1.90000,NA,NA,"",  -20.0000E-03,            0.,       1.90000,   235.259E-03
C:/Users/touze/project/Shear_centre/strip/Job-1.odb,loading,Increment      1: Step Time =    1.000,"PART-1-1",          1753,  -20.0000E-03,   50.0000E-03,       1.90000,NA,NA,"",  -20.0000E-03,   50.0000E-03,       1.90000,   222.876E-03
C:/Users/touze/project/Shear_centre/strip/Job-1.odb,loading,Increment      1: Step Time =    1.000,"PART-1-1",          1752,  -20.0000E-03,   100.000E-03,       1.90000,NA,NA,"",  -20.0000E-03,   100.000E-03,       1.90000,   188.872E-03
C:/Users/touze/project/Shear_centre/strip/Job-1.odb,loading,Increment      1: Step Time =    1.000,"PART-1-1",          1751,  -20.0000E-03,   150.000E-03,       1.90000,NA,NA,"",  -20.0000E-03,   150.000E-03,       1.90000,   141.347E-03
C:/Users/touze/project/Shear_centre/strip/Job-1.odb,loading,Increment      1: Step Time =    1.000,"PART-1-1",          1750,  -20.0000E-03,   200.000E-03,       1.90000,NA,NA,"",  -20.0000E-03,   200.000E-03,       1.90000,   93.0780E-03
C:/Users/touze/project/Shear_centre/strip/Job-1.odb,loading,Increment      1: Step Time =    1.000,"PART-1-1",          1749,  -20.0000E-03,      250.E-03,       1.90000,NA,NA,"",  -20.0000E-03,      250.E-03,       1.90000,   70.4329E-03
C:/Users/touze/project/Shear_centre/strip/Job-1.odb,loading,Increment      1: Step Time =    1.000,"PART-1-1",          1748,  -20.0000E-03,   300.000E-03,       1.90000,NA,NA,"",  -20.0000E-03,   300.000E-03,       1.90000,   92.3524E-03
C:/Users/touze/project/Shear_centre/strip/Job-1.odb,loading,Increment      1: Step Time =    1.000,"PART-1-1",          1747,  -20.0000E-03,   350.000E-03,       1.90000,NA,NA,"",  -20.0000E-03,   350.000E-03,       1.90000,   140.503E-03
C:/Users/touze/project/Shear_centre/strip/Job-1.odb,loading,Increment      1: Step Time =    1.000,"PART-1-1",          1746,  -20.0000E-03,   400.000E-03,       1.90000,NA,NA,"",  -20.0000E-03,   400.000E-03,       1.90000,   187.948E-03
C:/Users/touze/project/Shear_centre/strip/Job-1.odb,loading,Increment      1: Step Time =    1.000,"PART-1-1",          1745,  -20.0000E-03,   450.000E-03,       1.90000,NA,NA,"",  -20.0000E-03,   450.000E-03,       1.90000,   221.554E-03
C:/Users/touze/project/Shear_centre/strip/Job-1.odb,loading,Increment      1: Step Time =    1.000,"PART-1-1",          1744,  -20.0000E-03,      500.E-03,       1.90000,NA,NA,"",  -20.0000E-03,      500.E-03,       1.90000,   233.665E-03
C:/Users/touze/project/Shear_centre/strip/Job-1.odb,loading,Increment      1: Step Time =    1.000,"PART-1-1",           482,   20.0000E-03,  -450.000E-03,       1.90000,NA,NA,"",   20.0000E-03,  -450.000E-03,       1.90000,   221.554E-03
C:/Users/touze/project/Shear_centre/strip/Job-1.odb,loading,Increment      1: Step Time =    1.000,"PART-1-1",           481,   20.0000E-03,  -400.000E-03,       1.90000,NA,NA,"",   20.0000E-03,  -400.000E-03,       1.90000,   187.948E-03
C:/Users/touze/project/Shear_centre/strip/Job-1.odb,loading,Increment      1: Step Time =    1.000,"PART-1-1",           480,   20.0000E-03,  -350.000E-03,       1.90000,NA,NA,"",   20.0000E-03,  -350.000E-03,       1.90000,   140.503E-03
C:/Users/touze/project/Shear_centre/strip/Job-1.odb,loading,Increment      1: Step Time =    1.000,"PART-1-1",           479,   20.0000E-03,  -300.000E-03,       1.90000,NA,NA,"",   20.0000E-03,  -300.000E-03,       1.90000,   92.3524E-03
C:/Users/touze/project/Shear_centre/strip/Job-1.odb,loading,Increment      1: Step Time =    1.000,"PART-1-1",           478,   20.0000E-03,     -250.E-03,       1.90000,NA,NA,"",   20.0000E-03,     -250.E-03,       1.90000,   70.4330E-03
C:/Users/touze/project/Shear_centre/strip/Job-1.odb,loading,Increment      1: Step Time =    1.000,"PART-1-1",           477,   20.0000E-03,  -200.000E-03,       1.90000,NA,NA,"",   20.0000E-03,  -200.000E-03,       1.90000,   93.0780E-03
C:/Users/touze/project/Shear_centre/strip/Job-1.odb,loading,Increment      1: Step Time =    1.000,"PART-1-1",           476,   20.0000E-03,  -150.000E-03,       1.90000,NA,NA,"",   20.0000E-03,  -150.000E-03,       1.90000,   141.347E-03
C:/Users/touze/project/Shear_centre/strip/Job-1.odb,loading,Increment      1: Step Time =    1.000,"PART-1-1",           475,   20.0000E-03,  -100.000E-03,       1.90000,NA,NA,"",   20.0000E-03,  -100.000E-03,       1.90000,   188.872E-03
C:/Users/touze/project/Shear_centre/strip/Job-1.odb,loading,Increment      1: Step Time =    1.000,"PART-1-1",           474,   20.0000E-03,  -50.0000E-03,       1.90000,NA,NA,"",   20.0000E-03,  -50.0000E-03,       1.90000,   222.876E-03
C:/Users/touze/project/Shear_centre/strip/Job-1.odb,loading,Increment      1: Step Time =    1.000,"PART-1-1",           473,   20.0000E-03,            0.,       1.90000,NA,NA,"",   20.0000E-03,            0.,       1.90000,   235.259E-03
C:/Users/touze/project/Shear_centre/strip/Job-1.odb,loading,Increment      1: Step Time =    1.000,"PART-1-1",           472,   20.0000E-03,   50.0000E-03,       1.90000,NA,NA,"",   20.0000E-03,   50.0000E-03,       1.90000,   222.876E-03
C:/Users/touze/project/Shear_centre/strip/Job-1.odb,loading,Increment      1: Step Time =    1.000,"PART-1-1",           471,   20.0000E-03,   100.000E-03,       1.90000,NA,NA,"",   20.0000E-03,   100.000E-03,       1.90000,   188.872E-03
C:/Users/touze/project/Shear_centre/strip/Job-1.odb,loading,Increment      1: Step Time =    1.000,"PART-1-1",           470,   20.0000E-03,   150.000E-03,       1.90000,NA,NA,"",   20.0000E-03,   150.000E-03,       1.90000,   141.347E-03
C:/Users/touze/project/Shear_centre/strip/Job-1.odb,loading,Increment      1: Step Time =    1.000,"PART-1-1",           469,   20.0000E-03,   200.000E-03,       1.90000,NA,NA,"",   20.0000E-03,   200.000E-03,       1.90000,   93.0780E-03
C:/Users/touze/project/Shear_centre/strip/Job-1.odb,loading,Increment      1: Step Time =    1.000,"PART-1-1",           468,   20.0000E-03,      250.E-03,       1.90000,NA,NA,"",   20.0000E-03,      250.E-03,       1.90000,   70.4329E-03
C:/Users/touze/project/Shear_centre/strip/Job-1.odb,loading,Increment      1: Step Time =    1.000,"PART-1-1",           467,   20.0000E-03,   300.000E-03,       1.90000,NA,NA,"",   20.0000E-03,   300.000E-03,       1.90000,   92.3524E-03
C:/Users/touze/project/Shear_centre/strip/Job-1.odb,loading,Increment      1: Step Time =    1.000,"PART-1-1",           466,   20.0000E-03,   350.000E-03,       1.90000,NA,NA,"",   20.0000E-03,   350.000E-03,       1.90000,   140.503E-03
C:/Users/touze/project/Shear_centre/strip/Job-1.odb,loading,Increment      1: Step Time =    1.000,"PART-1-1",           465,   20.0000E-03,   400.000E-03,       1.90000,NA,NA,"",   20.0000E-03,   400.000E-03,       1.90000,   187.948E-03
C:/Users/touze/project/Shear_centre/strip/Job-1.odb,loading,Increment      1: Step Time =    1.000,"PART-1-1",           464,   20.0000E-03,   450.000E-03,       1.90000,NA,NA,"",   20.0000E-03,   450.000E-03,       1.90000,   221.554E-03
C:/Users/touze/project/Shear_centre/strip/Job-1.odb,loading,Increment      1: Step Time =    1.000,"PART-1-1",           483,   20.0000E-03,     -500.E-03,       1.90000,NA,NA,"",   20.0000E-03,     -500.E-03,       1.90000,   233.665E-03
C:/Users/touze/project/Shear_centre/strip/Job-1.odb,loading,Increment      1: Step Time =    1.000,"PART-1-1",           463,   20.0000E-03,      500.E-03,       1.90000,NA,NA,"",   20.0000E-03,      500.E-03,       1.90000,   233.665E-03
C:/Users/touze/project/Shear_centre/strip/Job-1.odb,loading,Increment      1: Step Time =    1.000,"PART-1-1",          1764,  -20.0000E-03,     -500.E-03,       1.90000,NA,NA,"",  -20.0000E-03,     -500.E-03,       1.90000,   233.665E-03
C:/Users/touze/project/Shear_centre/strip/Job-1.odb,loading,Increment      1: Step Time =    1.000,"PART-1-1",           462,   20.0000E-03,     -500.E-03,       1.95000,NA,NA,"",   20.0000E-03,     -500.E-03,       1.95000,   221.790E-03
C:/Users/touze/project/Shear_centre/strip/Job-1.odb,loading,Increment      1: Step Time =    1.000,"PART-1-1",           461,   20.0000E-03,  -450.000E-03,       1.95000,NA,NA,"",   20.0000E-03,  -450.000E-03,       1.95000,   210.505E-03
C:/Users/touze/project/Shear_centre/strip/Job-1.odb,loading,Increment      1: Step Time =    1.000,"PART-1-1",           460,   20.0000E-03,  -400.000E-03,       1.95000,NA,NA,"",   20.0000E-03,  -400.000E-03,       1.95000,   179.062E-03
C:/Users/touze/project/Shear_centre/strip/Job-1.odb,loading,Increment      1: Step Time =    1.000,"PART-1-1",           459,   20.0000E-03,  -350.000E-03,       1.95000,NA,NA,"",   20.0000E-03,  -350.000E-03,       1.95000,   134.540E-03
C:/Users/touze/project/Shear_centre/strip/Job-1.odb,loading,Increment      1: Step Time =    1.000,"PART-1-1",           458,   20.0000E-03,  -300.000E-03,       1.95000,NA,NA,"",   20.0000E-03,  -300.000E-03,       1.95000,   89.5479E-03
C:/Users/touze/project/Shear_centre/strip/Job-1.odb,loading,Increment      1: Step Time =    1.000,"PART-1-1",           457,   20.0000E-03,     -250.E-03,       1.95000,NA,NA,"",   20.0000E-03,     -250.E-03,       1.95000,   69.1562E-03
C:/Users/touze/project/Shear_centre/strip/Job-1.odb,loading,Increment      1: Step Time =    1.000,"PART-1-1",           456,   20.0000E-03,  -200.000E-03,       1.95000,NA,NA,"",   20.0000E-03,  -200.000E-03,       1.95000,   90.1632E-03
C:/Users/touze/project/Shear_centre/strip/Job-1.odb,loading,Increment      1: Step Time =    1.000,"PART-1-1",           455,   20.0000E-03,  -150.000E-03,       1.95000,NA,NA,"",   20.0000E-03,  -150.000E-03,       1.95000,   135.249E-03
C:/Users/touze/project/Shear_centre/strip/Job-1.odb,loading,Increment      1: Step Time =    1.000,"PART-1-1",           454,   20.0000E-03,  -100.000E-03,       1.95000,NA,NA,"",   20.0000E-03,  -100.000E-03,       1.95000,   179.902E-03
C:/Users/touze/project/Shear_centre/strip/Job-1.odb,loading,Increment      1: Step Time =    1.000,"PART-1-1",           453,   20.0000E-03,  -50.0000E-03,       1.95000,NA,NA,"",   20.0000E-03,  -50.0000E-03,       1.95000,   211.878E-03
C:/Users/touze/project/Shear_centre/strip/Job-1.odb,loading,Increment      1: Step Time =    1.000,"PART-1-1",           452,   20.0000E-03,            0.,       1.95000,NA,NA,"",   20.0000E-03,            0.,       1.95000,   223.519E-03
C:/Users/touze/project/Shear_centre/strip/Job-1.odb,loading,Increment      1: Step Time =    1.000,"PART-1-1",           451,   20.0000E-03,   50.0000E-03,       1.95000,NA,NA,"",   20.0000E-03,   50.0000E-03,       1.95000,   211.878E-03
C:/Users/touze/project/Shear_centre/strip/Job-1.odb,loading,Increment      1: Step Time =    1.000,"PART-1-1",           450,   20.0000E-03,   100.000E-03,       1.95000,NA,NA,"",   20.0000E-03,   100.000E-03,       1.95000,   179.902E-03
C:/Users/touze/project/Shear_centre/strip/Job-1.odb,loading,Increment      1: Step Time =    1.000,"PART-1-1",           449,   20.0000E-03,   150.000E-03,       1.95000,NA,NA,"",   20.0000E-03,   150.000E-03,       1.95000,   135.249E-03
C:/Users/touze/project/Shear_centre/strip/Job-1.odb,loading,Increment      1: Step Time =    1.000,"PART-1-1",           448,   20.0000E-03,   200.000E-03,       1.95000,NA,NA,"",   20.0000E-03,   200.000E-03,       1.95000,   90.1632E-03
C:/Users/touze/project/Shear_centre/strip/Job-1.odb,loading,Increment      1: Step Time =    1.000,"PART-1-1",           447,   20.0000E-03,      250.E-03,       1.95000,NA,NA,"",   20.0000E-03,      250.E-03,       1.95000,   69.1562E-03
C:/Users/touze/project/Shear_centre/strip/Job-1.odb,loading,Increment      1: Step Time =    1.000,"PART-1-1",           446,   20.0000E-03,   300.000E-03,       1.95000,NA,NA,"",   20.0000E-03,   300.000E-03,       1.95000,   89.5479E-03
C:/Users/touze/project/Shear_centre/strip/Job-1.odb,loading,Increment      1: Step Time =    1.000,"PART-1-1",           445,   20.0000E-03,   350.000E-03,       1.95000,NA,NA,"",   20.0000E-03,   350.000E-03,       1.95000,   134.540E-03
C:/Users/touze/project/Shear_centre/strip/Job-1.odb,loading,Increment      1: Step Time =    1.000,"PART-1-1",           444,   20.0000E-03,   400.000E-03,       1.95000,NA,NA,"",   20.0000E-03,   400.000E-03,       1.95000,   179.062E-03
C:/Users/touze/project/Shear_centre/strip/Job-1.odb,loading,Increment      1: Step Time =    1.000,"PART-1-1",           443,   20.0000E-03,   450.000E-03,       1.95000,NA,NA,"",   20.0000E-03,   450.000E-03,       1.95000,   210.505E-03
C:/Users/touze/project/Shear_centre/strip/Job-1.odb,loading,Increment      1: Step Time =    1.000,"PART-1-1",          1743,  -20.0000E-03,     -500.E-03,       1.95000,NA,NA,"",  -20.0000E-03,     -500.E-03,       1.95000,   221.790E-03
C:/Users/touze/project/Shear_centre/strip/Job-1.odb,loading,Increment      1: Step Time =    1.000,"PART-1-1",          1724,  -20.0000E-03,   450.000E-03,       1.95000,NA,NA,"",  -20.0000E-03,   450.000E-03,       1.95000,   210.505E-03
C:/Users/touze/project/Shear_centre/strip/Job-1.odb,loading,Increment      1: Step Time =    1.000,"PART-1-1",          1725,  -20.0000E-03,   400.000E-03,       1.95000,NA,NA,"",  -20.0000E-03,   400.000E-03,       1.95000,   179.062E-03
C:/Users/touze/project/Shear_centre/strip/Job-1.odb,loading,Increment      1: Step Time =    1.000,"PART-1-1",          1726,  -20.0000E-03,   350.000E-03,       1.95000,NA,NA,"",  -20.0000E-03,   350.000E-03,       1.95000,   134.540E-03
C:/Users/touze/project/Shear_centre/strip/Job-1.odb,loading,Increment      1: Step Time =    1.000,"PART-1-1",          1727,  -20.0000E-03,   300.000E-03,       1.95000,NA,NA,"",  -20.0000E-03,   300.000E-03,       1.95000,   89.5479E-03
C:/Users/touze/project/Shear_centre/strip/Job-1.odb,loading,Increment      1: Step Time =    1.000,"PART-1-1",          1728,  -20.0000E-03,      250.E-03,       1.95000,NA,NA,"",  -20.0000E-03,      250.E-03,       1.95000,   69.1562E-03
C:/Users/touze/project/Shear_centre/strip/Job-1.odb,loading,Increment      1: Step Time =    1.000,"PART-1-1",          1729,  -20.0000E-03,   200.000E-03,       1.95000,NA,NA,"",  -20.0000E-03,   200.000E-03,       1.95000,   90.1632E-03
C:/Users/touze/project/Shear_centre/strip/Job-1.odb,loading,Increment      1: Step Time =    1.000,"PART-1-1",          1730,  -20.0000E-03,   150.000E-03,       1.95000,NA,NA,"",  -20.0000E-03,   150.000E-03,       1.95000,   135.249E-03
C:/Users/touze/project/Shear_centre/strip/Job-1.odb,loading,Increment      1: Step Time =    1.000,"PART-1-1",          1731,  -20.0000E-03,   100.000E-03,       1.95000,NA,NA,"",  -20.0000E-03,   100.000E-03,       1.95000,   179.902E-03
C:/Users/touze/project/Shear_centre/strip/Job-1.odb,loading,Increment      1: Step Time =    1.000,"PART-1-1",          1732,  -20.0000E-03,   50.0000E-03,       1.95000,NA,NA,"",  -20.0000E-03,   50.0000E-03,       1.95000,   211.878E-03
C:/Users/touze/project/Shear_centre/strip/Job-1.odb,loading,Increment      1: Step Time =    1.000,"PART-1-1",          1723,  -20.0000E-03,      500.E-03,       1.95000,NA,NA,"",  -20.0000E-03,      500.E-03,       1.95000,   221.790E-03
C:/Users/touze/project/Shear_centre/strip/Job-1.odb,loading,Increment      1: Step Time =    1.000,"PART-1-1",          1733,  -20.0000E-03,            0.,       1.95000,NA,NA,"",  -20.0000E-03,            0.,       1.95000,   223.519E-03
C:/Users/touze/project/Shear_centre/strip/Job-1.odb,loading,Increment      1: Step Time =    1.000,"PART-1-1",          1734,  -20.0000E-03,  -50.0000E-03,       1.95000,NA,NA,"",  -20.0000E-03,  -50.0000E-03,       1.95000,   211.878E-03
C:/Users/touze/project/Shear_centre/strip/Job-1.odb,loading,Increment      1: Step Time =    1.000,"PART-1-1",          1735,  -20.0000E-03,  -100.000E-03,       1.95000,NA,NA,"",  -20.0000E-03,  -100.000E-03,       1.95000,   179.902E-03
C:/Users/touze/project/Shear_centre/strip/Job-1.odb,loading,Increment      1: Step Time =    1.000,"PART-1-1",          1736,  -20.0000E-03,  -150.000E-03,       1.95000,NA,NA,"",  -20.0000E-03,  -150.000E-03,       1.95000,   135.249E-03
C:/Users/touze/project/Shear_centre/strip/Job-1.odb,loading,Increment      1: Step Time =    1.000,"PART-1-1",          1737,  -20.0000E-03,  -200.000E-03,       1.95000,NA,NA,"",  -20.0000E-03,  -200.000E-03,       1.95000,   90.1632E-03
C:/Users/touze/project/Shear_centre/strip/Job-1.odb,loading,Increment      1: Step Time =    1.000,"PART-1-1",          1738,  -20.0000E-03,     -250.E-03,       1.95000,NA,NA,"",  -20.0000E-03,     -250.E-03,       1.95000,   69.1562E-03
C:/Users/touze/project/Shear_centre/strip/Job-1.odb,loading,Increment      1: Step Time =    1.000,"PART-1-1",          1739,  -20.0000E-03,  -300.000E-03,       1.95000,NA,NA,"",  -20.0000E-03,  -300.000E-03,       1.95000,   89.5479E-03
C:/Users/touze/project/Shear_centre/strip/Job-1.odb,loading,Increment      1: Step Time =    1.000,"PART-1-1",          1740,  -20.0000E-03,  -350.000E-03,       1.95000,NA,NA,"",  -20.0000E-03,  -350.000E-03,       1.95000,   134.540E-03
C:/Users/touze/project/Shear_centre/strip/Job-1.odb,loading,Increment      1: Step Time =    1.000,"PART-1-1",          1741,  -20.0000E-03,  -400.000E-03,       1.95000,NA,NA,"",  -20.0000E-03,  -400.000E-03,       1.95000,   179.062E-03
C:/Users/touze/project/Shear_centre/strip/Job-1.odb,loading,Increment      1: Step Time =    1.000,"PART-1-1",          1742,  -20.0000E-03,  -450.000E-03,       1.95000,NA,NA,"",  -20.0000E-03,  -450.000E-03,       1.95000,   210.505E-03
C:/Users/touze/project/Shear_centre/strip/Job-1.odb,loading,Increment      1: Step Time =    1.000,"PART-1-1",           442,   20.0000E-03,      500.E-03,       1.95000,NA,NA,"",   20.0000E-03,      500.E-03,       1.95000,   221.790E-03
C:/Users/touze/project/Shear_centre/strip/Job-1.odb,loading,Increment      1: Step Time =    1.000,"PART-1-1",           441,   20.0000E-03,     -500.E-03,            2.,NA,NA,"",   20.0000E-03,     -500.E-03,            2.,   210.040E-03
C:/Users/touze/project/Shear_centre/strip/Job-1.odb,loading,Increment      1: Step Time =    1.000,"PART-1-1",           440,   20.0000E-03,  -450.000E-03,            2.,NA,NA,"",   20.0000E-03,  -450.000E-03,            2.,   199.569E-03
C:/Users/touze/project/Shear_centre/strip/Job-1.odb,loading,Increment      1: Step Time =    1.000,"PART-1-1",           439,   20.0000E-03,  -400.000E-03,            2.,NA,NA,"",   20.0000E-03,  -400.000E-03,            2.,   170.266E-03
C:/Users/touze/project/Shear_centre/strip/Job-1.odb,loading,Increment      1: Step Time =    1.000,"PART-1-1",           438,   20.0000E-03,  -350.000E-03,            2.,NA,NA,"",   20.0000E-03,  -350.000E-03,            2.,   128.653E-03
C:/Users/touze/project/Shear_centre/strip/Job-1.odb,loading,Increment      1: Step Time =    1.000,"PART-1-1",           437,   20.0000E-03,  -300.000E-03,            2.,NA,NA,"",   20.0000E-03,  -300.000E-03,            2.,   86.8019E-03
C:/Users/touze/project/Shear_centre/strip/Job-1.odb,loading,Increment      1: Step Time =    1.000,"PART-1-1",           436,   20.0000E-03,     -250.E-03,            2.,NA,NA,"",   20.0000E-03,     -250.E-03,            2.,   67.9271E-03
C:/Users/touze/project/Shear_centre/strip/Job-1.odb,loading,Increment      1: Step Time =    1.000,"PART-1-1",           435,   20.0000E-03,  -200.000E-03,            2.,NA,NA,"",   20.0000E-03,  -200.000E-03,            2.,   87.3085E-03
C:/Users/touze/project/Shear_centre/strip/Job-1.odb,loading,Increment      1: Step Time =    1.000,"PART-1-1",           434,   20.0000E-03,  -150.000E-03,            2.,NA,NA,"",   20.0000E-03,  -150.000E-03,            2.,   129.227E-03
C:/Users/touze/project/Shear_centre/strip/Job-1.odb,loading,Increment      1: Step Time =    1.000,"PART-1-1",           433,   20.0000E-03,  -100.000E-03,            2.,NA,NA,"",   20.0000E-03,  -100.000E-03,            2.,   171.023E-03
C:/Users/touze/project/Shear_centre/strip/Job-1.odb,loading,Increment      1: Step Time =    1.000,"PART-1-1",           432,   20.0000E-03,  -50.0000E-03,            2.,NA,NA,"",   20.0000E-03,  -50.0000E-03,            2.,   200.999E-03
C:/Users/touze/project/Shear_centre/strip/Job-1.odb,loading,Increment      1: Step Time =    1.000,"PART-1-1",           430,   20.0000E-03,   50.0000E-03,            2.,NA,NA,"",   20.0000E-03,   50.0000E-03,            2.,   200.999E-03
C:/Users/touze/project/Shear_centre/strip/Job-1.odb,loading,Increment      1: Step Time =    1.000,"PART-1-1",           429,   20.0000E-03,   100.000E-03,            2.,NA,NA,"",   20.0000E-03,   100.000E-03,            2.,   171.023E-03
C:/Users/touze/project/Shear_centre/strip/Job-1.odb,loading,Increment      1: Step Time =    1.000,"PART-1-1",           428,   20.0000E-03,   150.000E-03,            2.,NA,NA,"",   20.0000E-03,   150.000E-03,            2.,   129.227E-03
C:/Users/touze/project/Shear_centre/strip/Job-1.odb,loading,Increment      1: Step Time =    1.000,"PART-1-1",           427,   20.0000E-03,   200.000E-03,            2.,NA,NA,"",   20.0000E-03,   200.000E-03,            2.,   87.3085E-03
C:/Users/touze/project/Shear_centre/strip/Job-1.odb,loading,Increment      1: Step Time =    1.000,"PART-1-1",           426,   20.0000E-03,      250.E-03,            2.,NA,NA,"",   20.0000E-03,      250.E-03,            2.,   67.9271E-03
C:/Users/touze/project/Shear_centre/strip/Job-1.odb,loading,Increment      1: Step Time =    1.000,"PART-1-1",           425,   20.0000E-03,   300.000E-03,            2.,NA,NA,"",   20.0000E-03,   300.000E-03,            2.,   86.8019E-03
C:/Users/touze/project/Shear_centre/strip/Job-1.odb,loading,Increment      1: Step Time =    1.000,"PART-1-1",           424,   20.0000E-03,   350.000E-03,            2.,NA,NA,"",   20.0000E-03,   350.000E-03,            2.,   128.653E-03
C:/Users/touze/project/Shear_centre/strip/Job-1.odb,loading,Increment      1: Step Time =    1.000,"PART-1-1",           423,   20.0000E-03,   400.000E-03,            2.,NA,NA,"",   20.0000E-03,   400.000E-03,            2.,   170.266E-03
C:/Users/touze/project/Shear_centre/strip/Job-1.odb,loading,Increment      1: Step Time =    1.000,"PART-1-1",           422,   20.0000E-03,   450.000E-03,            2.,NA,NA,"",   20.0000E-03,   450.000E-03,            2.,   199.569E-03
C:/Users/touze/project/Shear_centre/strip/Job-1.odb,loading,Increment      1: Step Time =    1.000,"PART-1-1",           431,   20.0000E-03,            0.,            2.,NA,NA,"",   20.0000E-03,            0.,            2.,   211.913E-03
C:/Users/touze/project/Shear_centre/strip/Job-1.odb,loading,Increment      1: Step Time =    1.000,"PART-1-1",           421,   20.0000E-03,      500.E-03,            2.,NA,NA,"",   20.0000E-03,      500.E-03,            2.,   210.040E-03
C:/Users/touze/project/Shear_centre/strip/Job-1.odb,loading,Increment      1: Step Time =    1.000,"PART-1-1",          1702,  -20.0000E-03,      500.E-03,            2.,NA,NA,"",  -20.0000E-03,      500.E-03,            2.,   210.040E-03
C:/Users/touze/project/Shear_centre/strip/Job-1.odb,loading,Increment      1: Step Time =    1.000,"PART-1-1",          1703,  -20.0000E-03,   450.000E-03,            2.,NA,NA,"",  -20.0000E-03,   450.000E-03,            2.,   199.569E-03
C:/Users/touze/project/Shear_centre/strip/Job-1.odb,loading,Increment      1: Step Time =    1.000,"PART-1-1",          1704,  -20.0000E-03,   400.000E-03,            2.,NA,NA,"",  -20.0000E-03,   400.000E-03,            2.,   170.266E-03
C:/Users/touze/project/Shear_centre/strip/Job-1.odb,loading,Increment      1: Step Time =    1.000,"PART-1-1",          1705,  -20.0000E-03,   350.000E-03,            2.,NA,NA,"",  -20.0000E-03,   350.000E-03,            2.,   128.653E-03
C:/Users/touze/project/Shear_centre/strip/Job-1.odb,loading,Increment      1: Step Time =    1.000,"PART-1-1",          1706,  -20.0000E-03,   300.000E-03,            2.,NA,NA,"",  -20.0000E-03,   300.000E-03,            2.,   86.8019E-03
C:/Users/touze/project/Shear_centre/strip/Job-1.odb,loading,Increment      1: Step Time =    1.000,"PART-1-1",          1707,  -20.0000E-03,      250.E-03,            2.,NA,NA,"",  -20.0000E-03,      250.E-03,            2.,   67.9271E-03
C:/Users/touze/project/Shear_centre/strip/Job-1.odb,loading,Increment      1: Step Time =    1.000,"PART-1-1",          1708,  -20.0000E-03,   200.000E-03,            2.,NA,NA,"",  -20.0000E-03,   200.000E-03,            2.,   87.3085E-03
C:/Users/touze/project/Shear_centre/strip/Job-1.odb,loading,Increment      1: Step Time =    1.000,"PART-1-1",          1709,  -20.0000E-03,   150.000E-03,            2.,NA,NA,"",  -20.0000E-03,   150.000E-03,            2.,   129.227E-03
C:/Users/touze/project/Shear_centre/strip/Job-1.odb,loading,Increment      1: Step Time =    1.000,"PART-1-1",          1710,  -20.0000E-03,   100.000E-03,            2.,NA,NA,"",  -20.0000E-03,   100.000E-03,            2.,   171.023E-03
C:/Users/touze/project/Shear_centre/strip/Job-1.odb,loading,Increment      1: Step Time =    1.000,"PART-1-1",          1711,  -20.0000E-03,   50.0000E-03,            2.,NA,NA,"",  -20.0000E-03,   50.0000E-03,            2.,   200.999E-03
C:/Users/touze/project/Shear_centre/strip/Job-1.odb,loading,Increment      1: Step Time =    1.000,"PART-1-1",          1712,  -20.0000E-03,            0.,            2.,NA,NA,"",  -20.0000E-03,            0.,            2.,   211.913E-03
C:/Users/touze/project/Shear_centre/strip/Job-1.odb,loading,Increment      1: Step Time =    1.000,"PART-1-1",          1713,  -20.0000E-03,  -50.0000E-03,            2.,NA,NA,"",  -20.0000E-03,  -50.0000E-03,            2.,   200.999E-03
C:/Users/touze/project/Shear_centre/strip/Job-1.odb,loading,Increment      1: Step Time =    1.000,"PART-1-1",          1714,  -20.0000E-03,  -100.000E-03,            2.,NA,NA,"",  -20.0000E-03,  -100.000E-03,            2.,   171.023E-03
C:/Users/touze/project/Shear_centre/strip/Job-1.odb,loading,Increment      1: Step Time =    1.000,"PART-1-1",          1715,  -20.0000E-03,  -150.000E-03,            2.,NA,NA,"",  -20.0000E-03,  -150.000E-03,            2.,   129.227E-03
C:/Users/touze/project/Shear_centre/strip/Job-1.odb,loading,Increment      1: Step Time =    1.000,"PART-1-1",          1716,  -20.0000E-03,  -200.000E-03,            2.,NA,NA,"",  -20.0000E-03,  -200.000E-03,            2.,   87.3085E-03
C:/Users/touze/project/Shear_centre/strip/Job-1.odb,loading,Increment      1: Step Time =    1.000,"PART-1-1",          1717,  -20.0000E-03,     -250.E-03,            2.,NA,NA,"",  -20.0000E-03,     -250.E-03,            2.,   67.9271E-03
C:/Users/touze/project/Shear_centre/strip/Job-1.odb,loading,Increment      1: Step Time =    1.000,"PART-1-1",          1718,  -20.0000E-03,  -300.000E-03,            2.,NA,NA,"",  -20.0000E-03,  -300.000E-03,            2.,   86.8019E-03
C:/Users/touze/project/Shear_centre/strip/Job-1.odb,loading,Increment      1: Step Time =    1.000,"PART-1-1",          1719,  -20.0000E-03,  -350.000E-03,            2.,NA,NA,"",  -20.0000E-03,  -350.000E-03,            2.,   128.653E-03
C:/Users/touze/project/Shear_centre/strip/Job-1.odb,loading,Increment      1: Step Time =    1.000,"PART-1-1",          1720,  -20.0000E-03,  -400.000E-03,            2.,NA,NA,"",  -20.0000E-03,  -400.000E-03,            2.,   170.266E-03
C:/Users/touze/project/Shear_centre/strip/Job-1.odb,loading,Increment      1: Step Time =    1.000,"PART-1-1",          1721,  -20.0000E-03,  -450.000E-03,            2.,NA,NA,"",  -20.0000E-03,  -450.000E-03,            2.,   199.569E-03
C:/Users/touze/project/Shear_centre/strip/Job-1.odb,loading,Increment      1: Step Time =    1.000,"PART-1-1",          1722,  -20.0000E-03,     -500.E-03,            2.,NA,NA,"",  -20.0000E-03,     -500.E-03,            2.,   210.040E-03
C:/Users/touze/project/Shear_centre/strip/Job-1.odb,loading,Increment      1: Step Time =    1.000,"PART-1-1",          1700,  -20.0000E-03,  -450.000E-03,       2.05000,NA,NA,"",  -20.0000E-03,  -450.000E-03,       2.05000,   188.762E-03
C:/Users/touze/project/Shear_centre/strip/Job-1.odb,loading,Increment      1: Step Time =    1.000,"PART-1-1",          1699,  -20.0000E-03,  -400.000E-03,       2.05000,NA,NA,"",  -20.0000E-03,  -400.000E-03,       2.05000,   161.582E-03
C:/Users/touze/project/Shear_centre/strip/Job-1.odb,loading,Increment      1: Step Time =    1.000,"PART-1-1",          1698,  -20.0000E-03,  -350.000E-03,       2.05000,NA,NA,"",  -20.0000E-03,  -350.000E-03,       2.05000,   122.847E-03
C:/Users/touze/project/Shear_centre/strip/Job-1.odb,loading,Increment      1: Step Time =    1.000,"PART-1-1",          1697,  -20.0000E-03,  -300.000E-03,       2.05000,NA,NA,"",  -20.0000E-03,  -300.000E-03,       2.05000,   84.1135E-03
C:/Users/touze/project/Shear_centre/strip/Job-1.odb,loading,Increment      1: Step Time =    1.000,"PART-1-1",          1696,  -20.0000E-03,     -250.E-03,       2.05000,NA,NA,"",  -20.0000E-03,     -250.E-03,       2.05000,   66.7467E-03
C:/Users/touze/project/Shear_centre/strip/Job-1.odb,loading,Increment      1: Step Time =    1.000,"PART-1-1",          1695,  -20.0000E-03,  -200.000E-03,       2.05000,NA,NA,"",  -20.0000E-03,  -200.000E-03,       2.05000,   84.5183E-03
C:/Users/touze/project/Shear_centre/strip/Job-1.odb,loading,Increment      1: Step Time =    1.000,"PART-1-1",          1694,  -20.0000E-03,  -150.000E-03,       2.05000,NA,NA,"",  -20.0000E-03,  -150.000E-03,       2.05000,   123.287E-03
C:/Users/touze/project/Shear_centre/strip/Job-1.odb,loading,Increment      1: Step Time =    1.000,"PART-1-1",          1693,  -20.0000E-03,  -100.000E-03,       2.05000,NA,NA,"",  -20.0000E-03,  -100.000E-03,       2.05000,   162.244E-03
C:/Users/touze/project/Shear_centre/strip/Job-1.odb,loading,Increment      1: Step Time =    1.000,"PART-1-1",          1692,  -20.0000E-03,  -50.0000E-03,       2.05000,NA,NA,"",  -20.0000E-03,  -50.0000E-03,       2.05000,   190.243E-03
C:/Users/touze/project/Shear_centre/strip/Job-1.odb,loading,Increment      1: Step Time =    1.000,"PART-1-1",          1691,  -20.0000E-03,            0.,       2.05000,NA,NA,"",  -20.0000E-03,            0.,       2.05000,   200.439E-03
C:/Users/touze/project/Shear_centre/strip/Job-1.odb,loading,Increment      1: Step Time =    1.000,"PART-1-1",          1690,  -20.0000E-03,   50.0000E-03,       2.05000,NA,NA,"",  -20.0000E-03,   50.0000E-03,       2.05000,   190.243E-03
C:/Users/touze/project/Shear_centre/strip/Job-1.odb,loading,Increment      1: Step Time =    1.000,"PART-1-1",          1689,  -20.0000E-03,   100.000E-03,       2.05000,NA,NA,"",  -20.0000E-03,   100.000E-03,       2.05000,   162.244E-03
C:/Users/touze/project/Shear_centre/strip/Job-1.odb,loading,Increment      1: Step Time =    1.000,"PART-1-1",          1688,  -20.0000E-03,   150.000E-03,       2.05000,NA,NA,"",  -20.0000E-03,   150.000E-03,       2.05000,   123.287E-03
C:/Users/touze/project/Shear_centre/strip/Job-1.odb,loading,Increment      1: Step Time =    1.000,"PART-1-1",          1687,  -20.0000E-03,   200.000E-03,       2.05000,NA,NA,"",  -20.0000E-03,   200.000E-03,       2.05000,   84.5183E-03
C:/Users/touze/project/Shear_centre/strip/Job-1.odb,loading,Increment      1: Step Time =    1.000,"PART-1-1",          1686,  -20.0000E-03,      250.E-03,       2.05000,NA,NA,"",  -20.0000E-03,      250.E-03,       2.05000,   66.7467E-03
C:/Users/touze/project/Shear_centre/strip/Job-1.odb,loading,Increment      1: Step Time =    1.000,"PART-1-1",          1685,  -20.0000E-03,   300.000E-03,       2.05000,NA,NA,"",  -20.0000E-03,   300.000E-03,       2.05000,   84.1135E-03
C:/Users/touze/project/Shear_centre/strip/Job-1.odb,loading,Increment      1: Step Time =    1.000,"PART-1-1",          1684,  -20.0000E-03,   350.000E-03,       2.05000,NA,NA,"",  -20.0000E-03,   350.000E-03,       2.05000,   122.847E-03
C:/Users/touze/project/Shear_centre/strip/Job-1.odb,loading,Increment      1: Step Time =    1.000,"PART-1-1",          1683,  -20.0000E-03,   400.000E-03,       2.05000,NA,NA,"",  -20.0000E-03,   400.000E-03,       2.05000,   161.582E-03
C:/Users/touze/project/Shear_centre/strip/Job-1.odb,loading,Increment      1: Step Time =    1.000,"PART-1-1",          1682,  -20.0000E-03,   450.000E-03,       2.05000,NA,NA,"",  -20.0000E-03,   450.000E-03,       2.05000,   188.762E-03
C:/Users/touze/project/Shear_centre/strip/Job-1.odb,loading,Increment      1: Step Time =    1.000,"PART-1-1",          1681,  -20.0000E-03,      500.E-03,       2.05000,NA,NA,"",  -20.0000E-03,      500.E-03,       2.05000,   198.416E-03
C:/Users/touze/project/Shear_centre/strip/Job-1.odb,loading,Increment      1: Step Time =    1.000,"PART-1-1",           401,   20.0000E-03,   450.000E-03,       2.05000,NA,NA,"",   20.0000E-03,   450.000E-03,       2.05000,   188.762E-03
C:/Users/touze/project/Shear_centre/strip/Job-1.odb,loading,Increment      1: Step Time =    1.000,"PART-1-1",           402,   20.0000E-03,   400.000E-03,       2.05000,NA,NA,"",   20.0000E-03,   400.000E-03,       2.05000,   161.582E-03
C:/Users/touze/project/Shear_centre/strip/Job-1.odb,loading,Increment      1: Step Time =    1.000,"PART-1-1",           403,   20.0000E-03,   350.000E-03,       2.05000,NA,NA,"",   20.0000E-03,   350.000E-03,       2.05000,   122.847E-03
C:/Users/touze/project/Shear_centre/strip/Job-1.odb,loading,Increment      1: Step Time =    1.000,"PART-1-1",           404,   20.0000E-03,   300.000E-03,       2.05000,NA,NA,"",   20.0000E-03,   300.000E-03,       2.05000,   84.1135E-03
C:/Users/touze/project/Shear_centre/strip/Job-1.odb,loading,Increment      1: Step Time =    1.000,"PART-1-1",           405,   20.0000E-03,      250.E-03,       2.05000,NA,NA,"",   20.0000E-03,      250.E-03,       2.05000,   66.7467E-03
C:/Users/touze/project/Shear_centre/strip/Job-1.odb,loading,Increment      1: Step Time =    1.000,"PART-1-1",           406,   20.0000E-03,   200.000E-03,       2.05000,NA,NA,"",   20.0000E-03,   200.000E-03,       2.05000,   84.5183E-03
C:/Users/touze/project/Shear_centre/strip/Job-1.odb,loading,Increment      1: Step Time =    1.000,"PART-1-1",           407,   20.0000E-03,   150.000E-03,       2.05000,NA,NA,"",   20.0000E-03,   150.000E-03,       2.05000,   123.287E-03
C:/Users/touze/project/Shear_centre/strip/Job-1.odb,loading,Increment      1: Step Time =    1.000,"PART-1-1",           408,   20.0000E-03,   100.000E-03,       2.05000,NA,NA,"",   20.0000E-03,   100.000E-03,       2.05000,   162.244E-03
C:/Users/touze/project/Shear_centre/strip/Job-1.odb,loading,Increment      1: Step Time =    1.000,"PART-1-1",           409,   20.0000E-03,   50.0000E-03,       2.05000,NA,NA,"",   20.0000E-03,   50.0000E-03,       2.05000,   190.243E-03
C:/Users/touze/project/Shear_centre/strip/Job-1.odb,loading,Increment      1: Step Time =    1.000,"PART-1-1",           410,   20.0000E-03,            0.,       2.05000,NA,NA,"",   20.0000E-03,            0.,       2.05000,   200.439E-03
C:/Users/touze/project/Shear_centre/strip/Job-1.odb,loading,Increment      1: Step Time =    1.000,"PART-1-1",           411,   20.0000E-03,  -50.0000E-03,       2.05000,NA,NA,"",   20.0000E-03,  -50.0000E-03,       2.05000,   190.243E-03
C:/Users/touze/project/Shear_centre/strip/Job-1.odb,loading,Increment      1: Step Time =    1.000,"PART-1-1",           412,   20.0000E-03,  -100.000E-03,       2.05000,NA,NA,"",   20.0000E-03,  -100.000E-03,       2.05000,   162.244E-03
C:/Users/touze/project/Shear_centre/strip/Job-1.odb,loading,Increment      1: Step Time =    1.000,"PART-1-1",           413,   20.0000E-03,  -150.000E-03,       2.05000,NA,NA,"",   20.0000E-03,  -150.000E-03,       2.05000,   123.287E-03
C:/Users/touze/project/Shear_centre/strip/Job-1.odb,loading,Increment      1: Step Time =    1.000,"PART-1-1",           414,   20.0000E-03,  -200.000E-03,       2.05000,NA,NA,"",   20.0000E-03,  -200.000E-03,       2.05000,   84.5183E-03
C:/Users/touze/project/Shear_centre/strip/Job-1.odb,loading,Increment      1: Step Time =    1.000,"PART-1-1",           415,   20.0000E-03,     -250.E-03,       2.05000,NA,NA,"",   20.0000E-03,     -250.E-03,       2.05000,   66.7467E-03
C:/Users/touze/project/Shear_centre/strip/Job-1.odb,loading,Increment      1: Step Time =    1.000,"PART-1-1",           416,   20.0000E-03,  -300.000E-03,       2.05000,NA,NA,"",   20.0000E-03,  -300.000E-03,       2.05000,   84.1135E-03
C:/Users/touze/project/Shear_centre/strip/Job-1.odb,loading,Increment      1: Step Time =    1.000,"PART-1-1",           417,   20.0000E-03,  -350.000E-03,       2.05000,NA,NA,"",   20.0000E-03,  -350.000E-03,       2.05000,   122.847E-03
C:/Users/touze/project/Shear_centre/strip/Job-1.odb,loading,Increment      1: Step Time =    1.000,"PART-1-1",           418,   20.0000E-03,  -400.000E-03,       2.05000,NA,NA,"",   20.0000E-03,  -400.000E-03,       2.05000,   161.582E-03
C:/Users/touze/project/Shear_centre/strip/Job-1.odb,loading,Increment      1: Step Time =    1.000,"PART-1-1",           419,   20.0000E-03,  -450.000E-03,       2.05000,NA,NA,"",   20.0000E-03,  -450.000E-03,       2.05000,   188.762E-03
C:/Users/touze/project/Shear_centre/strip/Job-1.odb,loading,Increment      1: Step Time =    1.000,"PART-1-1",           420,   20.0000E-03,     -500.E-03,       2.05000,NA,NA,"",   20.0000E-03,     -500.E-03,       2.05000,   198.416E-03
C:/Users/touze/project/Shear_centre/strip/Job-1.odb,loading,Increment      1: Step Time =    1.000,"PART-1-1",           400,   20.0000E-03,      500.E-03,       2.05000,NA,NA,"",   20.0000E-03,      500.E-03,       2.05000,   198.416E-03
C:/Users/touze/project/Shear_centre/strip/Job-1.odb,loading,Increment      1: Step Time =    1.000,"PART-1-1",          1701,  -20.0000E-03,     -500.E-03,       2.05000,NA,NA,"",  -20.0000E-03,     -500.E-03,       2.05000,   198.416E-03
C:/Users/touze/project/Shear_centre/strip/Job-1.odb,loading,Increment      1: Step Time =    1.000,"PART-1-1",          1680,  -20.0000E-03,     -500.E-03,       2.10000,NA,NA,"",  -20.0000E-03,     -500.E-03,       2.10000,   186.895E-03
C:/Users/touze/project/Shear_centre/strip/Job-1.odb,loading,Increment      1: Step Time =    1.000,"PART-1-1",          1679,  -20.0000E-03,  -450.000E-03,       2.10000,NA,NA,"",  -20.0000E-03,  -450.000E-03,       2.10000,   178.049E-03
C:/Users/touze/project/Shear_centre/strip/Job-1.odb,loading,Increment      1: Step Time =    1.000,"PART-1-1",          1678,  -20.0000E-03,  -400.000E-03,       2.10000,NA,NA,"",  -20.0000E-03,  -400.000E-03,       2.10000,   152.982E-03
C:/Users/touze/project/Shear_centre/strip/Job-1.odb,loading,Increment      1: Step Time =    1.000,"PART-1-1",          1677,  -20.0000E-03,  -350.000E-03,       2.10000,NA,NA,"",  -20.0000E-03,  -350.000E-03,       2.10000,   117.121E-03
C:/Users/touze/project/Shear_centre/strip/Job-1.odb,loading,Increment      1: Step Time =    1.000,"PART-1-1",          1676,  -20.0000E-03,  -300.000E-03,       2.10000,NA,NA,"",  -20.0000E-03,  -300.000E-03,       2.10000,   81.4899E-03
C:/Users/touze/project/Shear_centre/strip/Job-1.odb,loading,Increment      1: Step Time =    1.000,"PART-1-1",          1675,  -20.0000E-03,     -250.E-03,       2.10000,NA,NA,"",  -20.0000E-03,     -250.E-03,       2.10000,   65.6166E-03
C:/Users/touze/project/Shear_centre/strip/Job-1.odb,loading,Increment      1: Step Time =    1.000,"PART-1-1",          1674,  -20.0000E-03,  -200.000E-03,       2.10000,NA,NA,"",  -20.0000E-03,  -200.000E-03,       2.10000,   81.7937E-03
C:/Users/touze/project/Shear_centre/strip/Job-1.odb,loading,Increment      1: Step Time =    1.000,"PART-1-1",          1673,  -20.0000E-03,  -150.000E-03,       2.10000,NA,NA,"",  -20.0000E-03,  -150.000E-03,       2.10000,   117.427E-03
C:/Users/touze/project/Shear_centre/strip/Job-1.odb,loading,Increment      1: Step Time =    1.000,"PART-1-1",          1672,  -20.0000E-03,  -100.000E-03,       2.10000,NA,NA,"",  -20.0000E-03,  -100.000E-03,       2.10000,   153.553E-03
C:/Users/touze/project/Shear_centre/strip/Job-1.odb,loading,Increment      1: Step Time =    1.000,"PART-1-1",          1671,  -20.0000E-03,  -50.0000E-03,       2.10000,NA,NA,"",  -20.0000E-03,  -50.0000E-03,       2.10000,   179.592E-03
C:/Users/touze/project/Shear_centre/strip/Job-1.odb,loading,Increment      1: Step Time =    1.000,"PART-1-1",          1670,  -20.0000E-03,            0.,       2.10000,NA,NA,"",  -20.0000E-03,            0.,       2.10000,   189.080E-03
C:/Users/touze/project/Shear_centre/strip/Job-1.odb,loading,Increment      1: Step Time =    1.000,"PART-1-1",          1669,  -20.0000E-03,   50.0000E-03,       2.10000,NA,NA,"",  -20.0000E-03,   50.0000E-03,       2.10000,   179.592E-03
C:/Users/touze/project/Shear_centre/strip/Job-1.odb,loading,Increment      1: Step Time =    1.000,"PART-1-1",          1668,  -20.0000E-03,   100.000E-03,       2.10000,NA,NA,"",  -20.0000E-03,   100.000E-03,       2.10000,   153.553E-03
C:/Users/touze/project/Shear_centre/strip/Job-1.odb,loading,Increment      1: Step Time =    1.000,"PART-1-1",          1667,  -20.0000E-03,   150.000E-03,       2.10000,NA,NA,"",  -20.0000E-03,   150.000E-03,       2.10000,   117.427E-03
C:/Users/touze/project/Shear_centre/strip/Job-1.odb,loading,Increment      1: Step Time =    1.000,"PART-1-1",          1666,  -20.0000E-03,   200.000E-03,       2.10000,NA,NA,"",  -20.0000E-03,   200.000E-03,       2.10000,   81.7937E-03
C:/Users/touze/project/Shear_centre/strip/Job-1.odb,loading,Increment      1: Step Time =    1.000,"PART-1-1",          1665,  -20.0000E-03,      250.E-03,       2.10000,NA,NA,"",  -20.0000E-03,      250.E-03,       2.10000,   65.6166E-03
C:/Users/touze/project/Shear_centre/strip/Job-1.odb,loading,Increment      1: Step Time =    1.000,"PART-1-1",          1664,  -20.0000E-03,   300.000E-03,       2.10000,NA,NA,"",  -20.0000E-03,   300.000E-03,       2.10000,   81.4900E-03
C:/Users/touze/project/Shear_centre/strip/Job-1.odb,loading,Increment      1: Step Time =    1.000,"PART-1-1",          1663,  -20.0000E-03,   350.000E-03,       2.10000,NA,NA,"",  -20.0000E-03,   350.000E-03,       2.10000,   117.121E-03
C:/Users/touze/project/Shear_centre/strip/Job-1.odb,loading,Increment      1: Step Time =    1.000,"PART-1-1",          1662,  -20.0000E-03,   400.000E-03,       2.10000,NA,NA,"",  -20.0000E-03,   400.000E-03,       2.10000,   152.982E-03
C:/Users/touze/project/Shear_centre/strip/Job-1.odb,loading,Increment      1: Step Time =    1.000,"PART-1-1",          1661,  -20.0000E-03,   450.000E-03,       2.10000,NA,NA,"",  -20.0000E-03,   450.000E-03,       2.10000,   178.049E-03
C:/Users/touze/project/Shear_centre/strip/Job-1.odb,loading,Increment      1: Step Time =    1.000,"PART-1-1",          1660,  -20.0000E-03,      500.E-03,       2.10000,NA,NA,"",  -20.0000E-03,      500.E-03,       2.10000,   186.895E-03
C:/Users/touze/project/Shear_centre/strip/Job-1.odb,loading,Increment      1: Step Time =    1.000,"PART-1-1",           379,   20.0000E-03,      500.E-03,       2.10000,NA,NA,"",   20.0000E-03,      500.E-03,       2.10000,   186.895E-03
C:/Users/touze/project/Shear_centre/strip/Job-1.odb,loading,Increment      1: Step Time =    1.000,"PART-1-1",           399,   20.0000E-03,     -500.E-03,       2.10000,NA,NA,"",   20.0000E-03,     -500.E-03,       2.10000,   186.895E-03
C:/Users/touze/project/Shear_centre/strip/Job-1.odb,loading,Increment      1: Step Time =    1.000,"PART-1-1",           398,   20.0000E-03,  -450.000E-03,       2.10000,NA,NA,"",   20.0000E-03,  -450.000E-03,       2.10000,   178.049E-03
C:/Users/touze/project/Shear_centre/strip/Job-1.odb,loading,Increment      1: Step Time =    1.000,"PART-1-1",           397,   20.0000E-03,  -400.000E-03,       2.10000,NA,NA,"",   20.0000E-03,  -400.000E-03,       2.10000,   152.982E-03
C:/Users/touze/project/Shear_centre/strip/Job-1.odb,loading,Increment      1: Step Time =    1.000,"PART-1-1",           396,   20.0000E-03,  -350.000E-03,       2.10000,NA,NA,"",   20.0000E-03,  -350.000E-03,       2.10000,   117.121E-03
C:/Users/touze/project/Shear_centre/strip/Job-1.odb,loading,Increment      1: Step Time =    1.000,"PART-1-1",           395,   20.0000E-03,  -300.000E-03,       2.10000,NA,NA,"",   20.0000E-03,  -300.000E-03,       2.10000,   81.4899E-03
C:/Users/touze/project/Shear_centre/strip/Job-1.odb,loading,Increment      1: Step Time =    1.000,"PART-1-1",           394,   20.0000E-03,     -250.E-03,       2.10000,NA,NA,"",   20.0000E-03,     -250.E-03,       2.10000,   65.6166E-03
C:/Users/touze/project/Shear_centre/strip/Job-1.odb,loading,Increment      1: Step Time =    1.000,"PART-1-1",           393,   20.0000E-03,  -200.000E-03,       2.10000,NA,NA,"",   20.0000E-03,  -200.000E-03,       2.10000,   81.7937E-03
C:/Users/touze/project/Shear_centre/strip/Job-1.odb,loading,Increment      1: Step Time =    1.000,"PART-1-1",           392,   20.0000E-03,  -150.000E-03,       2.10000,NA,NA,"",   20.0000E-03,  -150.000E-03,       2.10000,   117.427E-03
C:/Users/touze/project/Shear_centre/strip/Job-1.odb,loading,Increment      1: Step Time =    1.000,"PART-1-1",           391,   20.0000E-03,  -100.000E-03,       2.10000,NA,NA,"",   20.0000E-03,  -100.000E-03,       2.10000,   153.553E-03
C:/Users/touze/project/Shear_centre/strip/Job-1.odb,loading,Increment      1: Step Time =    1.000,"PART-1-1",           390,   20.0000E-03,  -50.0000E-03,       2.10000,NA,NA,"",   20.0000E-03,  -50.0000E-03,       2.10000,   179.592E-03
C:/Users/touze/project/Shear_centre/strip/Job-1.odb,loading,Increment      1: Step Time =    1.000,"PART-1-1",           389,   20.0000E-03,            0.,       2.10000,NA,NA,"",   20.0000E-03,            0.,       2.10000,   189.080E-03
C:/Users/touze/project/Shear_centre/strip/Job-1.odb,loading,Increment      1: Step Time =    1.000,"PART-1-1",           388,   20.0000E-03,   50.0000E-03,       2.10000,NA,NA,"",   20.0000E-03,   50.0000E-03,       2.10000,   179.592E-03
C:/Users/touze/project/Shear_centre/strip/Job-1.odb,loading,Increment      1: Step Time =    1.000,"PART-1-1",           387,   20.0000E-03,   100.000E-03,       2.10000,NA,NA,"",   20.0000E-03,   100.000E-03,       2.10000,   153.553E-03
C:/Users/touze/project/Shear_centre/strip/Job-1.odb,loading,Increment      1: Step Time =    1.000,"PART-1-1",           386,   20.0000E-03,   150.000E-03,       2.10000,NA,NA,"",   20.0000E-03,   150.000E-03,       2.10000,   117.427E-03
C:/Users/touze/project/Shear_centre/strip/Job-1.odb,loading,Increment      1: Step Time =    1.000,"PART-1-1",           385,   20.0000E-03,   200.000E-03,       2.10000,NA,NA,"",   20.0000E-03,   200.000E-03,       2.10000,   81.7937E-03
C:/Users/touze/project/Shear_centre/strip/Job-1.odb,loading,Increment      1: Step Time =    1.000,"PART-1-1",           384,   20.0000E-03,      250.E-03,       2.10000,NA,NA,"",   20.0000E-03,      250.E-03,       2.10000,   65.6166E-03
C:/Users/touze/project/Shear_centre/strip/Job-1.odb,loading,Increment      1: Step Time =    1.000,"PART-1-1",           383,   20.0000E-03,   300.000E-03,       2.10000,NA,NA,"",   20.0000E-03,   300.000E-03,       2.10000,   81.4900E-03
C:/Users/touze/project/Shear_centre/strip/Job-1.odb,loading,Increment      1: Step Time =    1.000,"PART-1-1",           382,   20.0000E-03,   350.000E-03,       2.10000,NA,NA,"",   20.0000E-03,   350.000E-03,       2.10000,   117.121E-03
C:/Users/touze/project/Shear_centre/strip/Job-1.odb,loading,Increment      1: Step Time =    1.000,"PART-1-1",           381,   20.0000E-03,   400.000E-03,       2.10000,NA,NA,"",   20.0000E-03,   400.000E-03,       2.10000,   152.982E-03
C:/Users/touze/project/Shear_centre/strip/Job-1.odb,loading,Increment      1: Step Time =    1.000,"PART-1-1",           380,   20.0000E-03,   450.000E-03,       2.10000,NA,NA,"",   20.0000E-03,   450.000E-03,       2.10000,   178.049E-03
C:/Users/touze/project/Shear_centre/strip/Job-1.odb,loading,Increment      1: Step Time =    1.000,"PART-1-1",          1659,  -20.0000E-03,     -500.E-03,       2.15000,NA,NA,"",  -20.0000E-03,     -500.E-03,       2.15000,   175.487E-03
C:/Users/touze/project/Shear_centre/strip/Job-1.odb,loading,Increment      1: Step Time =    1.000,"PART-1-1",          1658,  -20.0000E-03,  -450.000E-03,       2.15000,NA,NA,"",  -20.0000E-03,  -450.000E-03,       2.15000,   167.462E-03
C:/Users/touze/project/Shear_centre/strip/Job-1.odb,loading,Increment      1: Step Time =    1.000,"PART-1-1",          1657,  -20.0000E-03,  -400.000E-03,       2.15000,NA,NA,"",  -20.0000E-03,  -400.000E-03,       2.15000,   144.500E-03
C:/Users/touze/project/Shear_centre/strip/Job-1.odb,loading,Increment      1: Step Time =    1.000,"PART-1-1",          1656,  -20.0000E-03,  -350.000E-03,       2.15000,NA,NA,"",  -20.0000E-03,  -350.000E-03,       2.15000,   111.484E-03
C:/Users/touze/project/Shear_centre/strip/Job-1.odb,loading,Increment      1: Step Time =    1.000,"PART-1-1",          1655,  -20.0000E-03,  -300.000E-03,       2.15000,NA,NA,"",  -20.0000E-03,  -300.000E-03,       2.15000,   78.9290E-03
C:/Users/touze/project/Shear_centre/strip/Job-1.odb,loading,Increment      1: Step Time =    1.000,"PART-1-1",          1654,  -20.0000E-03,     -250.E-03,       2.15000,NA,NA,"",  -20.0000E-03,     -250.E-03,       2.15000,   64.5379E-03
C:/Users/touze/project/Shear_centre/strip/Job-1.odb,loading,Increment      1: Step Time =    1.000,"PART-1-1",          1653,  -20.0000E-03,  -200.000E-03,       2.15000,NA,NA,"",  -20.0000E-03,  -200.000E-03,       2.15000,   79.1415E-03
C:/Users/touze/project/Shear_centre/strip/Job-1.odb,loading,Increment      1: Step Time =    1.000,"PART-1-1",          1652,  -20.0000E-03,  -150.000E-03,       2.15000,NA,NA,"",  -20.0000E-03,  -150.000E-03,       2.15000,   111.657E-03
C:/Users/touze/project/Shear_centre/strip/Job-1.odb,loading,Increment      1: Step Time =    1.000,"PART-1-1",          1651,  -20.0000E-03,  -100.000E-03,       2.15000,NA,NA,"",  -20.0000E-03,  -100.000E-03,       2.15000,   144.962E-03
C:/Users/touze/project/Shear_centre/strip/Job-1.odb,loading,Increment      1: Step Time =    1.000,"PART-1-1",          1650,  -20.0000E-03,  -50.0000E-03,       2.15000,NA,NA,"",  -20.0000E-03,  -50.0000E-03,       2.15000,   169.055E-03
C:/Users/touze/project/Shear_centre/strip/Job-1.odb,loading,Increment      1: Step Time =    1.000,"PART-1-1",          1649,  -20.0000E-03,            0.,       2.15000,NA,NA,"",  -20.0000E-03,            0.,       2.15000,   177.842E-03
C:/Users/touze/project/Shear_centre/strip/Job-1.odb,loading,Increment      1: Step Time =    1.000,"PART-1-1",          1648,  -20.0000E-03,   50.0000E-03,       2.15000,NA,NA,"",  -20.0000E-03,   50.0000E-03,       2.15000,   169.055E-03
C:/Users/touze/project/Shear_centre/strip/Job-1.odb,loading,Increment      1: Step Time =    1.000,"PART-1-1",          1647,  -20.0000E-03,   100.000E-03,       2.15000,NA,NA,"",  -20.0000E-03,   100.000E-03,       2.15000,   144.962E-03
C:/Users/touze/project/Shear_centre/strip/Job-1.odb,loading,Increment      1: Step Time =    1.000,"PART-1-1",          1646,  -20.0000E-03,   150.000E-03,       2.15000,NA,NA,"",  -20.0000E-03,   150.000E-03,       2.15000,   111.657E-03
C:/Users/touze/project/Shear_centre/strip/Job-1.odb,loading,Increment      1: Step Time =    1.000,"PART-1-1",          1645,  -20.0000E-03,   200.000E-03,       2.15000,NA,NA,"",  -20.0000E-03,   200.000E-03,       2.15000,   79.1415E-03
C:/Users/touze/project/Shear_centre/strip/Job-1.odb,loading,Increment      1: Step Time =    1.000,"PART-1-1",          1644,  -20.0000E-03,      250.E-03,       2.15000,NA,NA,"",  -20.0000E-03,      250.E-03,       2.15000,   64.5379E-03
C:/Users/touze/project/Shear_centre/strip/Job-1.odb,loading,Increment      1: Step Time =    1.000,"PART-1-1",          1643,  -20.0000E-03,   300.000E-03,       2.15000,NA,NA,"",  -20.0000E-03,   300.000E-03,       2.15000,   78.9290E-03
C:/Users/touze/project/Shear_centre/strip/Job-1.odb,loading,Increment      1: Step Time =    1.000,"PART-1-1",          1642,  -20.0000E-03,   350.000E-03,       2.15000,NA,NA,"",  -20.0000E-03,   350.000E-03,       2.15000,   111.484E-03
C:/Users/touze/project/Shear_centre/strip/Job-1.odb,loading,Increment      1: Step Time =    1.000,"PART-1-1",          1641,  -20.0000E-03,   400.000E-03,       2.15000,NA,NA,"",  -20.0000E-03,   400.000E-03,       2.15000,   144.500E-03
C:/Users/touze/project/Shear_centre/strip/Job-1.odb,loading,Increment      1: Step Time =    1.000,"PART-1-1",          1640,  -20.0000E-03,   450.000E-03,       2.15000,NA,NA,"",  -20.0000E-03,   450.000E-03,       2.15000,   167.462E-03
C:/Users/touze/project/Shear_centre/strip/Job-1.odb,loading,Increment      1: Step Time =    1.000,"PART-1-1",          1639,  -20.0000E-03,      500.E-03,       2.15000,NA,NA,"",  -20.0000E-03,      500.E-03,       2.15000,   175.487E-03
C:/Users/touze/project/Shear_centre/strip/Job-1.odb,loading,Increment      1: Step Time =    1.000,"PART-1-1",           358,   20.0000E-03,      500.E-03,       2.15000,NA,NA,"",   20.0000E-03,      500.E-03,       2.15000,   175.487E-03
C:/Users/touze/project/Shear_centre/strip/Job-1.odb,loading,Increment      1: Step Time =    1.000,"PART-1-1",           359,   20.0000E-03,   450.000E-03,       2.15000,NA,NA,"",   20.0000E-03,   450.000E-03,       2.15000,   167.462E-03
C:/Users/touze/project/Shear_centre/strip/Job-1.odb,loading,Increment      1: Step Time =    1.000,"PART-1-1",           360,   20.0000E-03,   400.000E-03,       2.15000,NA,NA,"",   20.0000E-03,   400.000E-03,       2.15000,   144.500E-03
C:/Users/touze/project/Shear_centre/strip/Job-1.odb,loading,Increment      1: Step Time =    1.000,"PART-1-1",           361,   20.0000E-03,   350.000E-03,       2.15000,NA,NA,"",   20.0000E-03,   350.000E-03,       2.15000,   111.484E-03
C:/Users/touze/project/Shear_centre/strip/Job-1.odb,loading,Increment      1: Step Time =    1.000,"PART-1-1",           362,   20.0000E-03,   300.000E-03,       2.15000,NA,NA,"",   20.0000E-03,   300.000E-03,       2.15000,   78.9290E-03
C:/Users/touze/project/Shear_centre/strip/Job-1.odb,loading,Increment      1: Step Time =    1.000,"PART-1-1",           363,   20.0000E-03,      250.E-03,       2.15000,NA,NA,"",   20.0000E-03,      250.E-03,       2.15000,   64.5379E-03
C:/Users/touze/project/Shear_centre/strip/Job-1.odb,loading,Increment      1: Step Time =    1.000,"PART-1-1",           364,   20.0000E-03,   200.000E-03,       2.15000,NA,NA,"",   20.0000E-03,   200.000E-03,       2.15000,   79.1415E-03
C:/Users/touze/project/Shear_centre/strip/Job-1.odb,loading,Increment      1: Step Time =    1.000,"PART-1-1",           365,   20.0000E-03,   150.000E-03,       2.15000,NA,NA,"",   20.0000E-03,   150.000E-03,       2.15000,   111.657E-03
C:/Users/touze/project/Shear_centre/strip/Job-1.odb,loading,Increment      1: Step Time =    1.000,"PART-1-1",           366,   20.0000E-03,   100.000E-03,       2.15000,NA,NA,"",   20.0000E-03,   100.000E-03,       2.15000,   144.962E-03
C:/Users/touze/project/Shear_centre/strip/Job-1.odb,loading,Increment      1: Step Time =    1.000,"PART-1-1",           367,   20.0000E-03,   50.0000E-03,       2.15000,NA,NA,"",   20.0000E-03,   50.0000E-03,       2.15000,   169.055E-03
C:/Users/touze/project/Shear_centre/strip/Job-1.odb,loading,Increment      1: Step Time =    1.000,"PART-1-1",           368,   20.0000E-03,            0.,       2.15000,NA,NA,"",   20.0000E-03,            0.,       2.15000,   177.842E-03
C:/Users/touze/project/Shear_centre/strip/Job-1.odb,loading,Increment      1: Step Time =    1.000,"PART-1-1",           369,   20.0000E-03,  -50.0000E-03,       2.15000,NA,NA,"",   20.0000E-03,  -50.0000E-03,       2.15000,   169.055E-03
C:/Users/touze/project/Shear_centre/strip/Job-1.odb,loading,Increment      1: Step Time =    1.000,"PART-1-1",           370,   20.0000E-03,  -100.000E-03,       2.15000,NA,NA,"",   20.0000E-03,  -100.000E-03,       2.15000,   144.962E-03
C:/Users/touze/project/Shear_centre/strip/Job-1.odb,loading,Increment      1: Step Time =    1.000,"PART-1-1",           371,   20.0000E-03,  -150.000E-03,       2.15000,NA,NA,"",   20.0000E-03,  -150.000E-03,       2.15000,   111.657E-03
C:/Users/touze/project/Shear_centre/strip/Job-1.odb,loading,Increment      1: Step Time =    1.000,"PART-1-1",           372,   20.0000E-03,  -200.000E-03,       2.15000,NA,NA,"",   20.0000E-03,  -200.000E-03,       2.15000,   79.1415E-03
C:/Users/touze/project/Shear_centre/strip/Job-1.odb,loading,Increment      1: Step Time =    1.000,"PART-1-1",           373,   20.0000E-03,     -250.E-03,       2.15000,NA,NA,"",   20.0000E-03,     -250.E-03,       2.15000,   64.5379E-03
C:/Users/touze/project/Shear_centre/strip/Job-1.odb,loading,Increment      1: Step Time =    1.000,"PART-1-1",           374,   20.0000E-03,  -300.000E-03,       2.15000,NA,NA,"",   20.0000E-03,  -300.000E-03,       2.15000,   78.9290E-03
C:/Users/touze/project/Shear_centre/strip/Job-1.odb,loading,Increment      1: Step Time =    1.000,"PART-1-1",           375,   20.0000E-03,  -350.000E-03,       2.15000,NA,NA,"",   20.0000E-03,  -350.000E-03,       2.15000,   111.484E-03
C:/Users/touze/project/Shear_centre/strip/Job-1.odb,loading,Increment      1: Step Time =    1.000,"PART-1-1",           376,   20.0000E-03,  -400.000E-03,       2.15000,NA,NA,"",   20.0000E-03,  -400.000E-03,       2.15000,   144.500E-03
C:/Users/touze/project/Shear_centre/strip/Job-1.odb,loading,Increment      1: Step Time =    1.000,"PART-1-1",           377,   20.0000E-03,  -450.000E-03,       2.15000,NA,NA,"",   20.0000E-03,  -450.000E-03,       2.15000,   167.462E-03
C:/Users/touze/project/Shear_centre/strip/Job-1.odb,loading,Increment      1: Step Time =    1.000,"PART-1-1",           378,   20.0000E-03,     -500.E-03,       2.15000,NA,NA,"",   20.0000E-03,     -500.E-03,       2.15000,   175.487E-03
C:/Users/touze/project/Shear_centre/strip/Job-1.odb,loading,Increment      1: Step Time =    1.000,"PART-1-1",           337,   20.0000E-03,      500.E-03,       2.20000,NA,NA,"",   20.0000E-03,      500.E-03,       2.20000,   164.160E-03
C:/Users/touze/project/Shear_centre/strip/Job-1.odb,loading,Increment      1: Step Time =    1.000,"PART-1-1",          1619,  -20.0000E-03,   450.000E-03,       2.20000,NA,NA,"",  -20.0000E-03,   450.000E-03,       2.20000,   156.952E-03
C:/Users/touze/project/Shear_centre/strip/Job-1.odb,loading,Increment      1: Step Time =    1.000,"PART-1-1",          1620,  -20.0000E-03,   400.000E-03,       2.20000,NA,NA,"",  -20.0000E-03,   400.000E-03,       2.20000,   136.097E-03
C:/Users/touze/project/Shear_centre/strip/Job-1.odb,loading,Increment      1: Step Time =    1.000,"PART-1-1",          1621,  -20.0000E-03,   350.000E-03,       2.20000,NA,NA,"",  -20.0000E-03,   350.000E-03,       2.20000,   105.936E-03
C:/Users/touze/project/Shear_centre/strip/Job-1.odb,loading,Increment      1: Step Time =    1.000,"PART-1-1",          1622,  -20.0000E-03,   300.000E-03,       2.20000,NA,NA,"",  -20.0000E-03,   300.000E-03,       2.20000,   76.4413E-03
C:/Users/touze/project/Shear_centre/strip/Job-1.odb,loading,Increment      1: Step Time =    1.000,"PART-1-1",          1623,  -20.0000E-03,      250.E-03,       2.20000,NA,NA,"",  -20.0000E-03,      250.E-03,       2.20000,   63.5123E-03
C:/Users/touze/project/Shear_centre/strip/Job-1.odb,loading,Increment      1: Step Time =    1.000,"PART-1-1",          1624,  -20.0000E-03,   200.000E-03,       2.20000,NA,NA,"",  -20.0000E-03,   200.000E-03,       2.20000,   76.5617E-03
C:/Users/touze/project/Shear_centre/strip/Job-1.odb,loading,Increment      1: Step Time =    1.000,"PART-1-1",          1625,  -20.0000E-03,   150.000E-03,       2.20000,NA,NA,"",  -20.0000E-03,   150.000E-03,       2.20000,   105.977E-03
C:/Users/touze/project/Shear_centre/strip/Job-1.odb,loading,Increment      1: Step Time =    1.000,"PART-1-1",          1626,  -20.0000E-03,   100.000E-03,       2.20000,NA,NA,"",  -20.0000E-03,   100.000E-03,       2.20000,   136.457E-03
C:/Users/touze/project/Shear_centre/strip/Job-1.odb,loading,Increment      1: Step Time =    1.000,"PART-1-1",          1627,  -20.0000E-03,   50.0000E-03,       2.20000,NA,NA,"",  -20.0000E-03,   50.0000E-03,       2.20000,   158.612E-03
C:/Users/touze/project/Shear_centre/strip/Job-1.odb,loading,Increment      1: Step Time =    1.000,"PART-1-1",          1628,  -20.0000E-03,            0.,       2.20000,NA,NA,"",  -20.0000E-03,            0.,       2.20000,   166.703E-03
C:/Users/touze/project/Shear_centre/strip/Job-1.odb,loading,Increment      1: Step Time =    1.000,"PART-1-1",          1629,  -20.0000E-03,  -50.0000E-03,       2.20000,NA,NA,"",  -20.0000E-03,  -50.0000E-03,       2.20000,   158.612E-03
C:/Users/touze/project/Shear_centre/strip/Job-1.odb,loading,Increment      1: Step Time =    1.000,"PART-1-1",          1630,  -20.0000E-03,  -100.000E-03,       2.20000,NA,NA,"",  -20.0000E-03,  -100.000E-03,       2.20000,   136.457E-03
C:/Users/touze/project/Shear_centre/strip/Job-1.odb,loading,Increment      1: Step Time =    1.000,"PART-1-1",          1631,  -20.0000E-03,  -150.000E-03,       2.20000,NA,NA,"",  -20.0000E-03,  -150.000E-03,       2.20000,   105.977E-03
C:/Users/touze/project/Shear_centre/strip/Job-1.odb,loading,Increment      1: Step Time =    1.000,"PART-1-1",          1632,  -20.0000E-03,  -200.000E-03,       2.20000,NA,NA,"",  -20.0000E-03,  -200.000E-03,       2.20000,   76.5617E-03
C:/Users/touze/project/Shear_centre/strip/Job-1.odb,loading,Increment      1: Step Time =    1.000,"PART-1-1",          1633,  -20.0000E-03,     -250.E-03,       2.20000,NA,NA,"",  -20.0000E-03,     -250.E-03,       2.20000,   63.5123E-03
C:/Users/touze/project/Shear_centre/strip/Job-1.odb,loading,Increment      1: Step Time =    1.000,"PART-1-1",          1634,  -20.0000E-03,  -300.000E-03,       2.20000,NA,NA,"",  -20.0000E-03,  -300.000E-03,       2.20000,   76.4412E-03
C:/Users/touze/project/Shear_centre/strip/Job-1.odb,loading,Increment      1: Step Time =    1.000,"PART-1-1",          1635,  -20.0000E-03,  -350.000E-03,       2.20000,NA,NA,"",  -20.0000E-03,  -350.000E-03,       2.20000,   105.936E-03
C:/Users/touze/project/Shear_centre/strip/Job-1.odb,loading,Increment      1: Step Time =    1.000,"PART-1-1",          1636,  -20.0000E-03,  -400.000E-03,       2.20000,NA,NA,"",  -20.0000E-03,  -400.000E-03,       2.20000,   136.097E-03
C:/Users/touze/project/Shear_centre/strip/Job-1.odb,loading,Increment      1: Step Time =    1.000,"PART-1-1",          1637,  -20.0000E-03,  -450.000E-03,       2.20000,NA,NA,"",  -20.0000E-03,  -450.000E-03,       2.20000,   156.952E-03
C:/Users/touze/project/Shear_centre/strip/Job-1.odb,loading,Increment      1: Step Time =    1.000,"PART-1-1",          1638,  -20.0000E-03,     -500.E-03,       2.20000,NA,NA,"",  -20.0000E-03,     -500.E-03,       2.20000,   164.160E-03
C:/Users/touze/project/Shear_centre/strip/Job-1.odb,loading,Increment      1: Step Time =    1.000,"PART-1-1",           357,   20.0000E-03,     -500.E-03,       2.20000,NA,NA,"",   20.0000E-03,     -500.E-03,       2.20000,   164.160E-03
C:/Users/touze/project/Shear_centre/strip/Job-1.odb,loading,Increment      1: Step Time =    1.000,"PART-1-1",           356,   20.0000E-03,  -450.000E-03,       2.20000,NA,NA,"",   20.0000E-03,  -450.000E-03,       2.20000,   156.952E-03
C:/Users/touze/project/Shear_centre/strip/Job-1.odb,loading,Increment      1: Step Time =    1.000,"PART-1-1",           355,   20.0000E-03,  -400.000E-03,       2.20000,NA,NA,"",   20.0000E-03,  -400.000E-03,       2.20000,   136.097E-03
C:/Users/touze/project/Shear_centre/strip/Job-1.odb,loading,Increment      1: Step Time =    1.000,"PART-1-1",           354,   20.0000E-03,  -350.000E-03,       2.20000,NA,NA,"",   20.0000E-03,  -350.000E-03,       2.20000,   105.936E-03
C:/Users/touze/project/Shear_centre/strip/Job-1.odb,loading,Increment      1: Step Time =    1.000,"PART-1-1",           353,   20.0000E-03,  -300.000E-03,       2.20000,NA,NA,"",   20.0000E-03,  -300.000E-03,       2.20000,   76.4412E-03
C:/Users/touze/project/Shear_centre/strip/Job-1.odb,loading,Increment      1: Step Time =    1.000,"PART-1-1",           352,   20.0000E-03,     -250.E-03,       2.20000,NA,NA,"",   20.0000E-03,     -250.E-03,       2.20000,   63.5123E-03
C:/Users/touze/project/Shear_centre/strip/Job-1.odb,loading,Increment      1: Step Time =    1.000,"PART-1-1",           351,   20.0000E-03,  -200.000E-03,       2.20000,NA,NA,"",   20.0000E-03,  -200.000E-03,       2.20000,   76.5617E-03
C:/Users/touze/project/Shear_centre/strip/Job-1.odb,loading,Increment      1: Step Time =    1.000,"PART-1-1",           350,   20.0000E-03,  -150.000E-03,       2.20000,NA,NA,"",   20.0000E-03,  -150.000E-03,       2.20000,   105.977E-03
C:/Users/touze/project/Shear_centre/strip/Job-1.odb,loading,Increment      1: Step Time =    1.000,"PART-1-1",           349,   20.0000E-03,  -100.000E-03,       2.20000,NA,NA,"",   20.0000E-03,  -100.000E-03,       2.20000,   136.457E-03
C:/Users/touze/project/Shear_centre/strip/Job-1.odb,loading,Increment      1: Step Time =    1.000,"PART-1-1",           348,   20.0000E-03,  -50.0000E-03,       2.20000,NA,NA,"",   20.0000E-03,  -50.0000E-03,       2.20000,   158.612E-03
C:/Users/touze/project/Shear_centre/strip/Job-1.odb,loading,Increment      1: Step Time =    1.000,"PART-1-1",           347,   20.0000E-03,            0.,       2.20000,NA,NA,"",   20.0000E-03,            0.,       2.20000,   166.703E-03
C:/Users/touze/project/Shear_centre/strip/Job-1.odb,loading,Increment      1: Step Time =    1.000,"PART-1-1",           346,   20.0000E-03,   50.0000E-03,       2.20000,NA,NA,"",   20.0000E-03,   50.0000E-03,       2.20000,   158.612E-03
C:/Users/touze/project/Shear_centre/strip/Job-1.odb,loading,Increment      1: Step Time =    1.000,"PART-1-1",           345,   20.0000E-03,   100.000E-03,       2.20000,NA,NA,"",   20.0000E-03,   100.000E-03,       2.20000,   136.457E-03
C:/Users/touze/project/Shear_centre/strip/Job-1.odb,loading,Increment      1: Step Time =    1.000,"PART-1-1",           344,   20.0000E-03,   150.000E-03,       2.20000,NA,NA,"",   20.0000E-03,   150.000E-03,       2.20000,   105.977E-03
C:/Users/touze/project/Shear_centre/strip/Job-1.odb,loading,Increment      1: Step Time =    1.000,"PART-1-1",           343,   20.0000E-03,   200.000E-03,       2.20000,NA,NA,"",   20.0000E-03,   200.000E-03,       2.20000,   76.5617E-03
C:/Users/touze/project/Shear_centre/strip/Job-1.odb,loading,Increment      1: Step Time =    1.000,"PART-1-1",           342,   20.0000E-03,      250.E-03,       2.20000,NA,NA,"",   20.0000E-03,      250.E-03,       2.20000,   63.5123E-03
C:/Users/touze/project/Shear_centre/strip/Job-1.odb,loading,Increment      1: Step Time =    1.000,"PART-1-1",           341,   20.0000E-03,   300.000E-03,       2.20000,NA,NA,"",   20.0000E-03,   300.000E-03,       2.20000,   76.4413E-03
C:/Users/touze/project/Shear_centre/strip/Job-1.odb,loading,Increment      1: Step Time =    1.000,"PART-1-1",           340,   20.0000E-03,   350.000E-03,       2.20000,NA,NA,"",   20.0000E-03,   350.000E-03,       2.20000,   105.936E-03
C:/Users/touze/project/Shear_centre/strip/Job-1.odb,loading,Increment      1: Step Time =    1.000,"PART-1-1",           339,   20.0000E-03,   400.000E-03,       2.20000,NA,NA,"",   20.0000E-03,   400.000E-03,       2.20000,   136.097E-03
C:/Users/touze/project/Shear_centre/strip/Job-1.odb,loading,Increment      1: Step Time =    1.000,"PART-1-1",           338,   20.0000E-03,   450.000E-03,       2.20000,NA,NA,"",   20.0000E-03,   450.000E-03,       2.20000,   156.952E-03
C:/Users/touze/project/Shear_centre/strip/Job-1.odb,loading,Increment      1: Step Time =    1.000,"PART-1-1",          1618,  -20.0000E-03,      500.E-03,       2.20000,NA,NA,"",  -20.0000E-03,      500.E-03,       2.20000,   164.160E-03
C:/Users/touze/project/Shear_centre/strip/Job-1.odb,loading,Increment      1: Step Time =    1.000,"PART-1-1",           317,   20.0000E-03,   450.000E-03,          2.25,NA,NA,"",   20.0000E-03,   450.000E-03,          2.25,   146.569E-03
C:/Users/touze/project/Shear_centre/strip/Job-1.odb,loading,Increment      1: Step Time =    1.000,"PART-1-1",           318,   20.0000E-03,   400.000E-03,          2.25,NA,NA,"",   20.0000E-03,   400.000E-03,          2.25,   127.827E-03
C:/Users/touze/project/Shear_centre/strip/Job-1.odb,loading,Increment      1: Step Time =    1.000,"PART-1-1",           319,   20.0000E-03,   350.000E-03,          2.25,NA,NA,"",   20.0000E-03,   350.000E-03,          2.25,   100.488E-03
C:/Users/touze/project/Shear_centre/strip/Job-1.odb,loading,Increment      1: Step Time =    1.000,"PART-1-1",           320,   20.0000E-03,   300.000E-03,          2.25,NA,NA,"",   20.0000E-03,   300.000E-03,          2.25,   74.0228E-03
C:/Users/touze/project/Shear_centre/strip/Job-1.odb,loading,Increment      1: Step Time =    1.000,"PART-1-1",           321,   20.0000E-03,      250.E-03,          2.25,NA,NA,"",   20.0000E-03,      250.E-03,          2.25,   62.5409E-03
C:/Users/touze/project/Shear_centre/strip/Job-1.odb,loading,Increment      1: Step Time =    1.000,"PART-1-1",           322,   20.0000E-03,   200.000E-03,          2.25,NA,NA,"",   20.0000E-03,   200.000E-03,          2.25,   74.0648E-03
C:/Users/touze/project/Shear_centre/strip/Job-1.odb,loading,Increment      1: Step Time =    1.000,"PART-1-1",           323,   20.0000E-03,   150.000E-03,          2.25,NA,NA,"",   20.0000E-03,   150.000E-03,          2.25,   100.400E-03
C:/Users/touze/project/Shear_centre/strip/Job-1.odb,loading,Increment      1: Step Time =    1.000,"PART-1-1",           324,   20.0000E-03,   100.000E-03,          2.25,NA,NA,"",   20.0000E-03,   100.000E-03,          2.25,   128.054E-03
C:/Users/touze/project/Shear_centre/strip/Job-1.odb,loading,Increment      1: Step Time =    1.000,"PART-1-1",           325,   20.0000E-03,   50.0000E-03,          2.25,NA,NA,"",   20.0000E-03,   50.0000E-03,          2.25,   148.274E-03
C:/Users/touze/project/Shear_centre/strip/Job-1.odb,loading,Increment      1: Step Time =    1.000,"PART-1-1",           326,   20.0000E-03,            0.,          2.25,NA,NA,"",   20.0000E-03,            0.,          2.25,   155.672E-03
C:/Users/touze/project/Shear_centre/strip/Job-1.odb,loading,Increment      1: Step Time =    1.000,"PART-1-1",           327,   20.0000E-03,  -50.0000E-03,          2.25,NA,NA,"",   20.0000E-03,  -50.0000E-03,          2.25,   148.274E-03
C:/Users/touze/project/Shear_centre/strip/Job-1.odb,loading,Increment      1: Step Time =    1.000,"PART-1-1",           328,   20.0000E-03,  -100.000E-03,          2.25,NA,NA,"",   20.0000E-03,  -100.000E-03,          2.25,   128.054E-03
C:/Users/touze/project/Shear_centre/strip/Job-1.odb,loading,Increment      1: Step Time =    1.000,"PART-1-1",           329,   20.0000E-03,  -150.000E-03,          2.25,NA,NA,"",   20.0000E-03,  -150.000E-03,          2.25,   100.400E-03
C:/Users/touze/project/Shear_centre/strip/Job-1.odb,loading,Increment      1: Step Time =    1.000,"PART-1-1",           330,   20.0000E-03,  -200.000E-03,          2.25,NA,NA,"",   20.0000E-03,  -200.000E-03,          2.25,   74.0648E-03
C:/Users/touze/project/Shear_centre/strip/Job-1.odb,loading,Increment      1: Step Time =    1.000,"PART-1-1",           331,   20.0000E-03,     -250.E-03,          2.25,NA,NA,"",   20.0000E-03,     -250.E-03,          2.25,   62.5409E-03
C:/Users/touze/project/Shear_centre/strip/Job-1.odb,loading,Increment      1: Step Time =    1.000,"PART-1-1",           332,   20.0000E-03,  -300.000E-03,          2.25,NA,NA,"",   20.0000E-03,  -300.000E-03,          2.25,   74.0228E-03
C:/Users/touze/project/Shear_centre/strip/Job-1.odb,loading,Increment      1: Step Time =    1.000,"PART-1-1",           333,   20.0000E-03,  -350.000E-03,          2.25,NA,NA,"",   20.0000E-03,  -350.000E-03,          2.25,   100.488E-03
C:/Users/touze/project/Shear_centre/strip/Job-1.odb,loading,Increment      1: Step Time =    1.000,"PART-1-1",           334,   20.0000E-03,  -400.000E-03,          2.25,NA,NA,"",   20.0000E-03,  -400.000E-03,          2.25,   127.827E-03
C:/Users/touze/project/Shear_centre/strip/Job-1.odb,loading,Increment      1: Step Time =    1.000,"PART-1-1",           335,   20.0000E-03,  -450.000E-03,          2.25,NA,NA,"",   20.0000E-03,  -450.000E-03,          2.25,   146.569E-03
C:/Users/touze/project/Shear_centre/strip/Job-1.odb,loading,Increment      1: Step Time =    1.000,"PART-1-1",           336,   20.0000E-03,     -500.E-03,          2.25,NA,NA,"",   20.0000E-03,     -500.E-03,          2.25,   152.934E-03
C:/Users/touze/project/Shear_centre/strip/Job-1.odb,loading,Increment      1: Step Time =    1.000,"PART-1-1",          1617,  -20.0000E-03,     -500.E-03,          2.25,NA,NA,"",  -20.0000E-03,     -500.E-03,          2.25,   152.934E-03
C:/Users/touze/project/Shear_centre/strip/Job-1.odb,loading,Increment      1: Step Time =    1.000,"PART-1-1",          1597,  -20.0000E-03,      500.E-03,          2.25,NA,NA,"",  -20.0000E-03,      500.E-03,          2.25,   152.934E-03
C:/Users/touze/project/Shear_centre/strip/Job-1.odb,loading,Increment      1: Step Time =    1.000,"PART-1-1",          1598,  -20.0000E-03,   450.000E-03,          2.25,NA,NA,"",  -20.0000E-03,   450.000E-03,          2.25,   146.569E-03
C:/Users/touze/project/Shear_centre/strip/Job-1.odb,loading,Increment      1: Step Time =    1.000,"PART-1-1",          1599,  -20.0000E-03,   400.000E-03,          2.25,NA,NA,"",  -20.0000E-03,   400.000E-03,          2.25,   127.827E-03
C:/Users/touze/project/Shear_centre/strip/Job-1.odb,loading,Increment      1: Step Time =    1.000,"PART-1-1",          1600,  -20.0000E-03,   350.000E-03,          2.25,NA,NA,"",  -20.0000E-03,   350.000E-03,          2.25,   100.488E-03
C:/Users/touze/project/Shear_centre/strip/Job-1.odb,loading,Increment      1: Step Time =    1.000,"PART-1-1",          1601,  -20.0000E-03,   300.000E-03,          2.25,NA,NA,"",  -20.0000E-03,   300.000E-03,          2.25,   74.0228E-03
C:/Users/touze/project/Shear_centre/strip/Job-1.odb,loading,Increment      1: Step Time =    1.000,"PART-1-1",          1602,  -20.0000E-03,      250.E-03,          2.25,NA,NA,"",  -20.0000E-03,      250.E-03,          2.25,   62.5409E-03
C:/Users/touze/project/Shear_centre/strip/Job-1.odb,loading,Increment      1: Step Time =    1.000,"PART-1-1",          1603,  -20.0000E-03,   200.000E-03,          2.25,NA,NA,"",  -20.0000E-03,   200.000E-03,          2.25,   74.0648E-03
C:/Users/touze/project/Shear_centre/strip/Job-1.odb,loading,Increment      1: Step Time =    1.000,"PART-1-1",          1604,  -20.0000E-03,   150.000E-03,          2.25,NA,NA,"",  -20.0000E-03,   150.000E-03,          2.25,   100.400E-03
C:/Users/touze/project/Shear_centre/strip/Job-1.odb,loading,Increment      1: Step Time =    1.000,"PART-1-1",          1605,  -20.0000E-03,   100.000E-03,          2.25,NA,NA,"",  -20.0000E-03,   100.000E-03,          2.25,   128.054E-03
C:/Users/touze/project/Shear_centre/strip/Job-1.odb,loading,Increment      1: Step Time =    1.000,"PART-1-1",          1606,  -20.0000E-03,   50.0000E-03,          2.25,NA,NA,"",  -20.0000E-03,   50.0000E-03,          2.25,   148.274E-03
C:/Users/touze/project/Shear_centre/strip/Job-1.odb,loading,Increment      1: Step Time =    1.000,"PART-1-1",          1607,  -20.0000E-03,            0.,          2.25,NA,NA,"",  -20.0000E-03,            0.,          2.25,   155.672E-03
C:/Users/touze/project/Shear_centre/strip/Job-1.odb,loading,Increment      1: Step Time =    1.000,"PART-1-1",          1608,  -20.0000E-03,  -50.0000E-03,          2.25,NA,NA,"",  -20.0000E-03,  -50.0000E-03,          2.25,   148.274E-03
C:/Users/touze/project/Shear_centre/strip/Job-1.odb,loading,Increment      1: Step Time =    1.000,"PART-1-1",          1609,  -20.0000E-03,  -100.000E-03,          2.25,NA,NA,"",  -20.0000E-03,  -100.000E-03,          2.25,   128.054E-03
C:/Users/touze/project/Shear_centre/strip/Job-1.odb,loading,Increment      1: Step Time =    1.000,"PART-1-1",          1610,  -20.0000E-03,  -150.000E-03,          2.25,NA,NA,"",  -20.0000E-03,  -150.000E-03,          2.25,   100.400E-03
C:/Users/touze/project/Shear_centre/strip/Job-1.odb,loading,Increment      1: Step Time =    1.000,"PART-1-1",          1611,  -20.0000E-03,  -200.000E-03,          2.25,NA,NA,"",  -20.0000E-03,  -200.000E-03,          2.25,   74.0648E-03
C:/Users/touze/project/Shear_centre/strip/Job-1.odb,loading,Increment      1: Step Time =    1.000,"PART-1-1",          1612,  -20.0000E-03,     -250.E-03,          2.25,NA,NA,"",  -20.0000E-03,     -250.E-03,          2.25,   62.5409E-03
C:/Users/touze/project/Shear_centre/strip/Job-1.odb,loading,Increment      1: Step Time =    1.000,"PART-1-1",          1613,  -20.0000E-03,  -300.000E-03,          2.25,NA,NA,"",  -20.0000E-03,  -300.000E-03,          2.25,   74.0228E-03
C:/Users/touze/project/Shear_centre/strip/Job-1.odb,loading,Increment      1: Step Time =    1.000,"PART-1-1",          1614,  -20.0000E-03,  -350.000E-03,          2.25,NA,NA,"",  -20.0000E-03,  -350.000E-03,          2.25,   100.488E-03
C:/Users/touze/project/Shear_centre/strip/Job-1.odb,loading,Increment      1: Step Time =    1.000,"PART-1-1",          1615,  -20.0000E-03,  -400.000E-03,          2.25,NA,NA,"",  -20.0000E-03,  -400.000E-03,          2.25,   127.827E-03
C:/Users/touze/project/Shear_centre/strip/Job-1.odb,loading,Increment      1: Step Time =    1.000,"PART-1-1",          1616,  -20.0000E-03,  -450.000E-03,          2.25,NA,NA,"",  -20.0000E-03,  -450.000E-03,          2.25,   146.569E-03
C:/Users/touze/project/Shear_centre/strip/Job-1.odb,loading,Increment      1: Step Time =    1.000,"PART-1-1",           316,   20.0000E-03,      500.E-03,          2.25,NA,NA,"",   20.0000E-03,      500.E-03,          2.25,   152.934E-03
C:/Users/touze/project/Shear_centre/strip/Job-1.odb,loading,Increment      1: Step Time =    1.000,"PART-1-1",           295,   20.0000E-03,      500.E-03,       2.30000,NA,NA,"",   20.0000E-03,      500.E-03,       2.30000,   141.761E-03
C:/Users/touze/project/Shear_centre/strip/Job-1.odb,loading,Increment      1: Step Time =    1.000,"PART-1-1",          1578,  -20.0000E-03,   400.000E-03,       2.30000,NA,NA,"",  -20.0000E-03,   400.000E-03,       2.30000,   119.627E-03
C:/Users/touze/project/Shear_centre/strip/Job-1.odb,loading,Increment      1: Step Time =    1.000,"PART-1-1",          1579,  -20.0000E-03,   350.000E-03,       2.30000,NA,NA,"",  -20.0000E-03,   350.000E-03,       2.30000,   95.1389E-03
C:/Users/touze/project/Shear_centre/strip/Job-1.odb,loading,Increment      1: Step Time =    1.000,"PART-1-1",          1580,  -20.0000E-03,   300.000E-03,       2.30000,NA,NA,"",  -20.0000E-03,   300.000E-03,       2.30000,   71.6887E-03
C:/Users/touze/project/Shear_centre/strip/Job-1.odb,loading,Increment      1: Step Time =    1.000,"PART-1-1",          1581,  -20.0000E-03,      250.E-03,       2.30000,NA,NA,"",  -20.0000E-03,      250.E-03,       2.30000,   61.6261E-03
C:/Users/touze/project/Shear_centre/strip/Job-1.odb,loading,Increment      1: Step Time =    1.000,"PART-1-1",          1582,  -20.0000E-03,   200.000E-03,       2.30000,NA,NA,"",  -20.0000E-03,   200.000E-03,       2.30000,   71.6494E-03
C:/Users/touze/project/Shear_centre/strip/Job-1.odb,loading,Increment      1: Step Time =    1.000,"PART-1-1",          1583,  -20.0000E-03,   150.000E-03,       2.30000,NA,NA,"",  -20.0000E-03,   150.000E-03,       2.30000,   94.9233E-03
C:/Users/touze/project/Shear_centre/strip/Job-1.odb,loading,Increment      1: Step Time =    1.000,"PART-1-1",          1584,  -20.0000E-03,   100.000E-03,       2.30000,NA,NA,"",  -20.0000E-03,   100.000E-03,       2.30000,   119.741E-03
C:/Users/touze/project/Shear_centre/strip/Job-1.odb,loading,Increment      1: Step Time =    1.000,"PART-1-1",          1585,  -20.0000E-03,   50.0000E-03,       2.30000,NA,NA,"",  -20.0000E-03,   50.0000E-03,       2.30000,   138.021E-03
C:/Users/touze/project/Shear_centre/strip/Job-1.odb,loading,Increment      1: Step Time =    1.000,"PART-1-1",          1586,  -20.0000E-03,            0.,       2.30000,NA,NA,"",  -20.0000E-03,            0.,       2.30000,   144.726E-03
C:/Users/touze/project/Shear_centre/strip/Job-1.odb,loading,Increment      1: Step Time =    1.000,"PART-1-1",          1587,  -20.0000E-03,  -50.0000E-03,       2.30000,NA,NA,"",  -20.0000E-03,  -50.0000E-03,       2.30000,   138.021E-03
C:/Users/touze/project/Shear_centre/strip/Job-1.odb,loading,Increment      1: Step Time =    1.000,"PART-1-1",          1588,  -20.0000E-03,  -100.000E-03,       2.30000,NA,NA,"",  -20.0000E-03,  -100.000E-03,       2.30000,   119.741E-03
C:/Users/touze/project/Shear_centre/strip/Job-1.odb,loading,Increment      1: Step Time =    1.000,"PART-1-1",          1589,  -20.0000E-03,  -150.000E-03,       2.30000,NA,NA,"",  -20.0000E-03,  -150.000E-03,       2.30000,   94.9233E-03
C:/Users/touze/project/Shear_centre/strip/Job-1.odb,loading,Increment      1: Step Time =    1.000,"PART-1-1",          1590,  -20.0000E-03,  -200.000E-03,       2.30000,NA,NA,"",  -20.0000E-03,  -200.000E-03,       2.30000,   71.6495E-03
C:/Users/touze/project/Shear_centre/strip/Job-1.odb,loading,Increment      1: Step Time =    1.000,"PART-1-1",          1591,  -20.0000E-03,     -250.E-03,       2.30000,NA,NA,"",  -20.0000E-03,     -250.E-03,       2.30000,   61.6261E-03
C:/Users/touze/project/Shear_centre/strip/Job-1.odb,loading,Increment      1: Step Time =    1.000,"PART-1-1",          1592,  -20.0000E-03,  -300.000E-03,       2.30000,NA,NA,"",  -20.0000E-03,  -300.000E-03,       2.30000,   71.6887E-03
C:/Users/touze/project/Shear_centre/strip/Job-1.odb,loading,Increment      1: Step Time =    1.000,"PART-1-1",          1593,  -20.0000E-03,  -350.000E-03,       2.30000,NA,NA,"",  -20.0000E-03,  -350.000E-03,       2.30000,   95.1389E-03
C:/Users/touze/project/Shear_centre/strip/Job-1.odb,loading,Increment      1: Step Time =    1.000,"PART-1-1",          1594,  -20.0000E-03,  -400.000E-03,       2.30000,NA,NA,"",  -20.0000E-03,  -400.000E-03,       2.30000,   119.627E-03
C:/Users/touze/project/Shear_centre/strip/Job-1.odb,loading,Increment      1: Step Time =    1.000,"PART-1-1",          1595,  -20.0000E-03,  -450.000E-03,       2.30000,NA,NA,"",  -20.0000E-03,  -450.000E-03,       2.30000,   136.240E-03
C:/Users/touze/project/Shear_centre/strip/Job-1.odb,loading,Increment      1: Step Time =    1.000,"PART-1-1",          1596,  -20.0000E-03,     -500.E-03,       2.30000,NA,NA,"",  -20.0000E-03,     -500.E-03,       2.30000,   141.761E-03
C:/Users/touze/project/Shear_centre/strip/Job-1.odb,loading,Increment      1: Step Time =    1.000,"PART-1-1",          1576,  -20.0000E-03,      500.E-03,       2.30000,NA,NA,"",  -20.0000E-03,      500.E-03,       2.30000,   141.761E-03
C:/Users/touze/project/Shear_centre/strip/Job-1.odb,loading,Increment      1: Step Time =    1.000,"PART-1-1",           296,   20.0000E-03,   450.000E-03,       2.30000,NA,NA,"",   20.0000E-03,   450.000E-03,       2.30000,   136.240E-03
C:/Users/touze/project/Shear_centre/strip/Job-1.odb,loading,Increment      1: Step Time =    1.000,"PART-1-1",           297,   20.0000E-03,   400.000E-03,       2.30000,NA,NA,"",   20.0000E-03,   400.000E-03,       2.30000,   119.627E-03
C:/Users/touze/project/Shear_centre/strip/Job-1.odb,loading,Increment      1: Step Time =    1.000,"PART-1-1",           298,   20.0000E-03,   350.000E-03,       2.30000,NA,NA,"",   20.0000E-03,   350.000E-03,       2.30000,   95.1389E-03
C:/Users/touze/project/Shear_centre/strip/Job-1.odb,loading,Increment      1: Step Time =    1.000,"PART-1-1",           299,   20.0000E-03,   300.000E-03,       2.30000,NA,NA,"",   20.0000E-03,   300.000E-03,       2.30000,   71.6887E-03
C:/Users/touze/project/Shear_centre/strip/Job-1.odb,loading,Increment      1: Step Time =    1.000,"PART-1-1",           300,   20.0000E-03,      250.E-03,       2.30000,NA,NA,"",   20.0000E-03,      250.E-03,       2.30000,   61.6261E-03
C:/Users/touze/project/Shear_centre/strip/Job-1.odb,loading,Increment      1: Step Time =    1.000,"PART-1-1",           301,   20.0000E-03,   200.000E-03,       2.30000,NA,NA,"",   20.0000E-03,   200.000E-03,       2.30000,   71.6494E-03
C:/Users/touze/project/Shear_centre/strip/Job-1.odb,loading,Increment      1: Step Time =    1.000,"PART-1-1",           302,   20.0000E-03,   150.000E-03,       2.30000,NA,NA,"",   20.0000E-03,   150.000E-03,       2.30000,   94.9233E-03
C:/Users/touze/project/Shear_centre/strip/Job-1.odb,loading,Increment      1: Step Time =    1.000,"PART-1-1",           303,   20.0000E-03,   100.000E-03,       2.30000,NA,NA,"",   20.0000E-03,   100.000E-03,       2.30000,   119.741E-03
C:/Users/touze/project/Shear_centre/strip/Job-1.odb,loading,Increment      1: Step Time =    1.000,"PART-1-1",           304,   20.0000E-03,   50.0000E-03,       2.30000,NA,NA,"",   20.0000E-03,   50.0000E-03,       2.30000,   138.021E-03
C:/Users/touze/project/Shear_centre/strip/Job-1.odb,loading,Increment      1: Step Time =    1.000,"PART-1-1",           305,   20.0000E-03,            0.,       2.30000,NA,NA,"",   20.0000E-03,            0.,       2.30000,   144.726E-03
C:/Users/touze/project/Shear_centre/strip/Job-1.odb,loading,Increment      1: Step Time =    1.000,"PART-1-1",           306,   20.0000E-03,  -50.0000E-03,       2.30000,NA,NA,"",   20.0000E-03,  -50.0000E-03,       2.30000,   138.021E-03
C:/Users/touze/project/Shear_centre/strip/Job-1.odb,loading,Increment      1: Step Time =    1.000,"PART-1-1",           307,   20.0000E-03,  -100.000E-03,       2.30000,NA,NA,"",   20.0000E-03,  -100.000E-03,       2.30000,   119.741E-03
C:/Users/touze/project/Shear_centre/strip/Job-1.odb,loading,Increment      1: Step Time =    1.000,"PART-1-1",           308,   20.0000E-03,  -150.000E-03,       2.30000,NA,NA,"",   20.0000E-03,  -150.000E-03,       2.30000,   94.9233E-03
C:/Users/touze/project/Shear_centre/strip/Job-1.odb,loading,Increment      1: Step Time =    1.000,"PART-1-1",           309,   20.0000E-03,  -200.000E-03,       2.30000,NA,NA,"",   20.0000E-03,  -200.000E-03,       2.30000,   71.6495E-03
C:/Users/touze/project/Shear_centre/strip/Job-1.odb,loading,Increment      1: Step Time =    1.000,"PART-1-1",           310,   20.0000E-03,     -250.E-03,       2.30000,NA,NA,"",   20.0000E-03,     -250.E-03,       2.30000,   61.6261E-03
C:/Users/touze/project/Shear_centre/strip/Job-1.odb,loading,Increment      1: Step Time =    1.000,"PART-1-1",           311,   20.0000E-03,  -300.000E-03,       2.30000,NA,NA,"",   20.0000E-03,  -300.000E-03,       2.30000,   71.6887E-03
C:/Users/touze/project/Shear_centre/strip/Job-1.odb,loading,Increment      1: Step Time =    1.000,"PART-1-1",           312,   20.0000E-03,  -350.000E-03,       2.30000,NA,NA,"",   20.0000E-03,  -350.000E-03,       2.30000,   95.1389E-03
C:/Users/touze/project/Shear_centre/strip/Job-1.odb,loading,Increment      1: Step Time =    1.000,"PART-1-1",           313,   20.0000E-03,  -400.000E-03,       2.30000,NA,NA,"",   20.0000E-03,  -400.000E-03,       2.30000,   119.627E-03
C:/Users/touze/project/Shear_centre/strip/Job-1.odb,loading,Increment      1: Step Time =    1.000,"PART-1-1",           314,   20.0000E-03,  -450.000E-03,       2.30000,NA,NA,"",   20.0000E-03,  -450.000E-03,       2.30000,   136.240E-03
C:/Users/touze/project/Shear_centre/strip/Job-1.odb,loading,Increment      1: Step Time =    1.000,"PART-1-1",           315,   20.0000E-03,     -500.E-03,       2.30000,NA,NA,"",   20.0000E-03,     -500.E-03,       2.30000,   141.761E-03
C:/Users/touze/project/Shear_centre/strip/Job-1.odb,loading,Increment      1: Step Time =    1.000,"PART-1-1",          1577,  -20.0000E-03,   450.000E-03,       2.30000,NA,NA,"",  -20.0000E-03,   450.000E-03,       2.30000,   136.240E-03
C:/Users/touze/project/Shear_centre/strip/Job-1.odb,loading,Increment      1: Step Time =    1.000,"PART-1-1",           275,   20.0000E-03,   450.000E-03,       2.35000,NA,NA,"",   20.0000E-03,   450.000E-03,       2.35000,   126.054E-03
C:/Users/touze/project/Shear_centre/strip/Job-1.odb,loading,Increment      1: Step Time =    1.000,"PART-1-1",           276,   20.0000E-03,   400.000E-03,       2.35000,NA,NA,"",   20.0000E-03,   400.000E-03,       2.35000,   111.592E-03
C:/Users/touze/project/Shear_centre/strip/Job-1.odb,loading,Increment      1: Step Time =    1.000,"PART-1-1",           277,   20.0000E-03,   350.000E-03,       2.35000,NA,NA,"",   20.0000E-03,   350.000E-03,       2.35000,   89.9131E-03
C:/Users/touze/project/Shear_centre/strip/Job-1.odb,loading,Increment      1: Step Time =    1.000,"PART-1-1",           278,   20.0000E-03,   300.000E-03,       2.35000,NA,NA,"",   20.0000E-03,   300.000E-03,       2.35000,   69.4337E-03
C:/Users/touze/project/Shear_centre/strip/Job-1.odb,loading,Increment      1: Step Time =    1.000,"PART-1-1",           279,   20.0000E-03,      250.E-03,       2.35000,NA,NA,"",   20.0000E-03,      250.E-03,       2.35000,   60.7673E-03
C:/Users/touze/project/Shear_centre/strip/Job-1.odb,loading,Increment      1: Step Time =    1.000,"PART-1-1",           280,   20.0000E-03,   200.000E-03,       2.35000,NA,NA,"",   20.0000E-03,   200.000E-03,       2.35000,   69.3311E-03
C:/Users/touze/project/Shear_centre/strip/Job-1.odb,loading,Increment      1: Step Time =    1.000,"PART-1-1",           281,   20.0000E-03,   150.000E-03,       2.35000,NA,NA,"",   20.0000E-03,   150.000E-03,       2.35000,   89.5723E-03
C:/Users/touze/project/Shear_centre/strip/Job-1.odb,loading,Increment      1: Step Time =    1.000,"PART-1-1",           282,   20.0000E-03,   100.000E-03,       2.35000,NA,NA,"",   20.0000E-03,   100.000E-03,       2.35000,   111.539E-03
C:/Users/touze/project/Shear_centre/strip/Job-1.odb,loading,Increment      1: Step Time =    1.000,"PART-1-1",           283,   20.0000E-03,   50.0000E-03,       2.35000,NA,NA,"",   20.0000E-03,   50.0000E-03,       2.35000,   127.870E-03
C:/Users/touze/project/Shear_centre/strip/Job-1.odb,loading,Increment      1: Step Time =    1.000,"PART-1-1",           284,   20.0000E-03,            0.,       2.35000,NA,NA,"",   20.0000E-03,            0.,       2.35000,   133.879E-03
C:/Users/touze/project/Shear_centre/strip/Job-1.odb,loading,Increment      1: Step Time =    1.000,"PART-1-1",           285,   20.0000E-03,  -50.0000E-03,       2.35000,NA,NA,"",   20.0000E-03,  -50.0000E-03,       2.35000,   127.870E-03
C:/Users/touze/project/Shear_centre/strip/Job-1.odb,loading,Increment      1: Step Time =    1.000,"PART-1-1",           286,   20.0000E-03,  -100.000E-03,       2.35000,NA,NA,"",   20.0000E-03,  -100.000E-03,       2.35000,   111.539E-03
C:/Users/touze/project/Shear_centre/strip/Job-1.odb,loading,Increment      1: Step Time =    1.000,"PART-1-1",           287,   20.0000E-03,  -150.000E-03,       2.35000,NA,NA,"",   20.0000E-03,  -150.000E-03,       2.35000,   89.5723E-03
C:/Users/touze/project/Shear_centre/strip/Job-1.odb,loading,Increment      1: Step Time =    1.000,"PART-1-1",           288,   20.0000E-03,  -200.000E-03,       2.35000,NA,NA,"",   20.0000E-03,  -200.000E-03,       2.35000,   69.3311E-03
C:/Users/touze/project/Shear_centre/strip/Job-1.odb,loading,Increment      1: Step Time =    1.000,"PART-1-1",           289,   20.0000E-03,     -250.E-03,       2.35000,NA,NA,"",   20.0000E-03,     -250.E-03,       2.35000,   60.7673E-03
C:/Users/touze/project/Shear_centre/strip/Job-1.odb,loading,Increment      1: Step Time =    1.000,"PART-1-1",           290,   20.0000E-03,  -300.000E-03,       2.35000,NA,NA,"",   20.0000E-03,  -300.000E-03,       2.35000,   69.4337E-03
C:/Users/touze/project/Shear_centre/strip/Job-1.odb,loading,Increment      1: Step Time =    1.000,"PART-1-1",           291,   20.0000E-03,  -350.000E-03,       2.35000,NA,NA,"",   20.0000E-03,  -350.000E-03,       2.35000,   89.9131E-03
C:/Users/touze/project/Shear_centre/strip/Job-1.odb,loading,Increment      1: Step Time =    1.000,"PART-1-1",           292,   20.0000E-03,  -400.000E-03,       2.35000,NA,NA,"",   20.0000E-03,  -400.000E-03,       2.35000,   111.591E-03
C:/Users/touze/project/Shear_centre/strip/Job-1.odb,loading,Increment      1: Step Time =    1.000,"PART-1-1",           293,   20.0000E-03,  -450.000E-03,       2.35000,NA,NA,"",   20.0000E-03,  -450.000E-03,       2.35000,   126.054E-03
C:/Users/touze/project/Shear_centre/strip/Job-1.odb,loading,Increment      1: Step Time =    1.000,"PART-1-1",           294,   20.0000E-03,     -500.E-03,       2.35000,NA,NA,"",   20.0000E-03,     -500.E-03,       2.35000,   130.683E-03
C:/Users/touze/project/Shear_centre/strip/Job-1.odb,loading,Increment      1: Step Time =    1.000,"PART-1-1",          1556,  -20.0000E-03,   450.000E-03,       2.35000,NA,NA,"",  -20.0000E-03,   450.000E-03,       2.35000,   126.054E-03
C:/Users/touze/project/Shear_centre/strip/Job-1.odb,loading,Increment      1: Step Time =    1.000,"PART-1-1",          1557,  -20.0000E-03,   400.000E-03,       2.35000,NA,NA,"",  -20.0000E-03,   400.000E-03,       2.35000,   111.592E-03
C:/Users/touze/project/Shear_centre/strip/Job-1.odb,loading,Increment      1: Step Time =    1.000,"PART-1-1",          1558,  -20.0000E-03,   350.000E-03,       2.35000,NA,NA,"",  -20.0000E-03,   350.000E-03,       2.35000,   89.9131E-03
C:/Users/touze/project/Shear_centre/strip/Job-1.odb,loading,Increment      1: Step Time =    1.000,"PART-1-1",          1559,  -20.0000E-03,   300.000E-03,       2.35000,NA,NA,"",  -20.0000E-03,   300.000E-03,       2.35000,   69.4337E-03
C:/Users/touze/project/Shear_centre/strip/Job-1.odb,loading,Increment      1: Step Time =    1.000,"PART-1-1",          1560,  -20.0000E-03,      250.E-03,       2.35000,NA,NA,"",  -20.0000E-03,      250.E-03,       2.35000,   60.7673E-03
C:/Users/touze/project/Shear_centre/strip/Job-1.odb,loading,Increment      1: Step Time =    1.000,"PART-1-1",          1561,  -20.0000E-03,   200.000E-03,       2.35000,NA,NA,"",  -20.0000E-03,   200.000E-03,       2.35000,   69.3311E-03
C:/Users/touze/project/Shear_centre/strip/Job-1.odb,loading,Increment      1: Step Time =    1.000,"PART-1-1",          1562,  -20.0000E-03,   150.000E-03,       2.35000,NA,NA,"",  -20.0000E-03,   150.000E-03,       2.35000,   89.5723E-03
C:/Users/touze/project/Shear_centre/strip/Job-1.odb,loading,Increment      1: Step Time =    1.000,"PART-1-1",          1563,  -20.0000E-03,   100.000E-03,       2.35000,NA,NA,"",  -20.0000E-03,   100.000E-03,       2.35000,   111.539E-03
C:/Users/touze/project/Shear_centre/strip/Job-1.odb,loading,Increment      1: Step Time =    1.000,"PART-1-1",          1564,  -20.0000E-03,   50.0000E-03,       2.35000,NA,NA,"",  -20.0000E-03,   50.0000E-03,       2.35000,   127.870E-03
C:/Users/touze/project/Shear_centre/strip/Job-1.odb,loading,Increment      1: Step Time =    1.000,"PART-1-1",          1565,  -20.0000E-03,            0.,       2.35000,NA,NA,"",  -20.0000E-03,            0.,       2.35000,   133.879E-03
C:/Users/touze/project/Shear_centre/strip/Job-1.odb,loading,Increment      1: Step Time =    1.000,"PART-1-1",          1566,  -20.0000E-03,  -50.0000E-03,       2.35000,NA,NA,"",  -20.0000E-03,  -50.0000E-03,       2.35000,   127.870E-03
C:/Users/touze/project/Shear_centre/strip/Job-1.odb,loading,Increment      1: Step Time =    1.000,"PART-1-1",          1567,  -20.0000E-03,  -100.000E-03,       2.35000,NA,NA,"",  -20.0000E-03,  -100.000E-03,       2.35000,   111.539E-03
C:/Users/touze/project/Shear_centre/strip/Job-1.odb,loading,Increment      1: Step Time =    1.000,"PART-1-1",          1568,  -20.0000E-03,  -150.000E-03,       2.35000,NA,NA,"",  -20.0000E-03,  -150.000E-03,       2.35000,   89.5723E-03
C:/Users/touze/project/Shear_centre/strip/Job-1.odb,loading,Increment      1: Step Time =    1.000,"PART-1-1",          1569,  -20.0000E-03,  -200.000E-03,       2.35000,NA,NA,"",  -20.0000E-03,  -200.000E-03,       2.35000,   69.3311E-03
C:/Users/touze/project/Shear_centre/strip/Job-1.odb,loading,Increment      1: Step Time =    1.000,"PART-1-1",          1570,  -20.0000E-03,     -250.E-03,       2.35000,NA,NA,"",  -20.0000E-03,     -250.E-03,       2.35000,   60.7673E-03
C:/Users/touze/project/Shear_centre/strip/Job-1.odb,loading,Increment      1: Step Time =    1.000,"PART-1-1",          1571,  -20.0000E-03,  -300.000E-03,       2.35000,NA,NA,"",  -20.0000E-03,  -300.000E-03,       2.35000,   69.4337E-03
C:/Users/touze/project/Shear_centre/strip/Job-1.odb,loading,Increment      1: Step Time =    1.000,"PART-1-1",          1572,  -20.0000E-03,  -350.000E-03,       2.35000,NA,NA,"",  -20.0000E-03,  -350.000E-03,       2.35000,   89.9131E-03
C:/Users/touze/project/Shear_centre/strip/Job-1.odb,loading,Increment      1: Step Time =    1.000,"PART-1-1",          1573,  -20.0000E-03,  -400.000E-03,       2.35000,NA,NA,"",  -20.0000E-03,  -400.000E-03,       2.35000,   111.591E-03
C:/Users/touze/project/Shear_centre/strip/Job-1.odb,loading,Increment      1: Step Time =    1.000,"PART-1-1",          1574,  -20.0000E-03,  -450.000E-03,       2.35000,NA,NA,"",  -20.0000E-03,  -450.000E-03,       2.35000,   126.054E-03
C:/Users/touze/project/Shear_centre/strip/Job-1.odb,loading,Increment      1: Step Time =    1.000,"PART-1-1",          1575,  -20.0000E-03,     -500.E-03,       2.35000,NA,NA,"",  -20.0000E-03,     -500.E-03,       2.35000,   130.683E-03
C:/Users/touze/project/Shear_centre/strip/Job-1.odb,loading,Increment      1: Step Time =    1.000,"PART-1-1",           274,   20.0000E-03,      500.E-03,       2.35000,NA,NA,"",   20.0000E-03,      500.E-03,       2.35000,   130.684E-03
C:/Users/touze/project/Shear_centre/strip/Job-1.odb,loading,Increment      1: Step Time =    1.000,"PART-1-1",          1555,  -20.0000E-03,      500.E-03,       2.35000,NA,NA,"",  -20.0000E-03,      500.E-03,       2.35000,   130.684E-03
C:/Users/touze/project/Shear_centre/strip/Job-1.odb,loading,Increment      1: Step Time =    1.000,"PART-1-1",           273,   20.0000E-03,     -500.E-03,       2.40000,NA,NA,"",   20.0000E-03,     -500.E-03,       2.40000,   119.622E-03
C:/Users/touze/project/Shear_centre/strip/Job-1.odb,loading,Increment      1: Step Time =    1.000,"PART-1-1",           272,   20.0000E-03,  -450.000E-03,       2.40000,NA,NA,"",   20.0000E-03,  -450.000E-03,       2.40000,   115.890E-03
C:/Users/touze/project/Shear_centre/strip/Job-1.odb,loading,Increment      1: Step Time =    1.000,"PART-1-1",           271,   20.0000E-03,  -400.000E-03,       2.40000,NA,NA,"",   20.0000E-03,  -400.000E-03,       2.40000,   103.611E-03
C:/Users/touze/project/Shear_centre/strip/Job-1.odb,loading,Increment      1: Step Time =    1.000,"PART-1-1",           270,   20.0000E-03,  -350.000E-03,       2.40000,NA,NA,"",   20.0000E-03,  -350.000E-03,       2.40000,   84.7939E-03
C:/Users/touze/project/Shear_centre/strip/Job-1.odb,loading,Increment      1: Step Time =    1.000,"PART-1-1",           269,   20.0000E-03,  -300.000E-03,       2.40000,NA,NA,"",   20.0000E-03,  -300.000E-03,       2.40000,   67.2768E-03
C:/Users/touze/project/Shear_centre/strip/Job-1.odb,loading,Increment      1: Step Time =    1.000,"PART-1-1",           268,   20.0000E-03,     -250.E-03,       2.40000,NA,NA,"",   20.0000E-03,     -250.E-03,       2.40000,   59.9704E-03
C:/Users/touze/project/Shear_centre/strip/Job-1.odb,loading,Increment      1: Step Time =    1.000,"PART-1-1",           267,   20.0000E-03,  -200.000E-03,       2.40000,NA,NA,"",   20.0000E-03,  -200.000E-03,       2.40000,   67.1066E-03
C:/Users/touze/project/Shear_centre/strip/Job-1.odb,loading,Increment      1: Step Time =    1.000,"PART-1-1",           266,   20.0000E-03,  -150.000E-03,       2.40000,NA,NA,"",   20.0000E-03,  -150.000E-03,       2.40000,   84.3407E-03
C:/Users/touze/project/Shear_centre/strip/Job-1.odb,loading,Increment      1: Step Time =    1.000,"PART-1-1",           265,   20.0000E-03,  -100.000E-03,       2.40000,NA,NA,"",   20.0000E-03,  -100.000E-03,       2.40000,   103.432E-03
C:/Users/touze/project/Shear_centre/strip/Job-1.odb,loading,Increment      1: Step Time =    1.000,"PART-1-1",           264,   20.0000E-03,  -50.0000E-03,       2.40000,NA,NA,"",   20.0000E-03,  -50.0000E-03,       2.40000,   117.791E-03
C:/Users/touze/project/Shear_centre/strip/Job-1.odb,loading,Increment      1: Step Time =    1.000,"PART-1-1",           263,   20.0000E-03,            0.,       2.40000,NA,NA,"",   20.0000E-03,            0.,       2.40000,   123.098E-03
C:/Users/touze/project/Shear_centre/strip/Job-1.odb,loading,Increment      1: Step Time =    1.000,"PART-1-1",           262,   20.0000E-03,   50.0000E-03,       2.40000,NA,NA,"",   20.0000E-03,   50.0000E-03,       2.40000,   117.791E-03
C:/Users/touze/project/Shear_centre/strip/Job-1.odb,loading,Increment      1: Step Time =    1.000,"PART-1-1",           261,   20.0000E-03,   100.000E-03,       2.40000,NA,NA,"",   20.0000E-03,   100.000E-03,       2.40000,   103.432E-03
C:/Users/touze/project/Shear_centre/strip/Job-1.odb,loading,Increment      1: Step Time =    1.000,"PART-1-1",           260,   20.0000E-03,   150.000E-03,       2.40000,NA,NA,"",   20.0000E-03,   150.000E-03,       2.40000,   84.3407E-03
C:/Users/touze/project/Shear_centre/strip/Job-1.odb,loading,Increment      1: Step Time =    1.000,"PART-1-1",           259,   20.0000E-03,   200.000E-03,       2.40000,NA,NA,"",   20.0000E-03,   200.000E-03,       2.40000,   67.1066E-03
C:/Users/touze/project/Shear_centre/strip/Job-1.odb,loading,Increment      1: Step Time =    1.000,"PART-1-1",           258,   20.0000E-03,      250.E-03,       2.40000,NA,NA,"",   20.0000E-03,      250.E-03,       2.40000,   59.9704E-03
C:/Users/touze/project/Shear_centre/strip/Job-1.odb,loading,Increment      1: Step Time =    1.000,"PART-1-1",           257,   20.0000E-03,   300.000E-03,       2.40000,NA,NA,"",   20.0000E-03,   300.000E-03,       2.40000,   67.2768E-03
C:/Users/touze/project/Shear_centre/strip/Job-1.odb,loading,Increment      1: Step Time =    1.000,"PART-1-1",           256,   20.0000E-03,   350.000E-03,       2.40000,NA,NA,"",   20.0000E-03,   350.000E-03,       2.40000,   84.7939E-03
C:/Users/touze/project/Shear_centre/strip/Job-1.odb,loading,Increment      1: Step Time =    1.000,"PART-1-1",           255,   20.0000E-03,   400.000E-03,       2.40000,NA,NA,"",   20.0000E-03,   400.000E-03,       2.40000,   103.611E-03
C:/Users/touze/project/Shear_centre/strip/Job-1.odb,loading,Increment      1: Step Time =    1.000,"PART-1-1",           254,   20.0000E-03,   450.000E-03,       2.40000,NA,NA,"",   20.0000E-03,   450.000E-03,       2.40000,   115.890E-03
C:/Users/touze/project/Shear_centre/strip/Job-1.odb,loading,Increment      1: Step Time =    1.000,"PART-1-1",           253,   20.0000E-03,      500.E-03,       2.40000,NA,NA,"",   20.0000E-03,      500.E-03,       2.40000,   119.622E-03
C:/Users/touze/project/Shear_centre/strip/Job-1.odb,loading,Increment      1: Step Time =    1.000,"PART-1-1",          1534,  -20.0000E-03,      500.E-03,       2.40000,NA,NA,"",  -20.0000E-03,      500.E-03,       2.40000,   119.622E-03
C:/Users/touze/project/Shear_centre/strip/Job-1.odb,loading,Increment      1: Step Time =    1.000,"PART-1-1",          1535,  -20.0000E-03,   450.000E-03,       2.40000,NA,NA,"",  -20.0000E-03,   450.000E-03,       2.40000,   115.890E-03
C:/Users/touze/project/Shear_centre/strip/Job-1.odb,loading,Increment      1: Step Time =    1.000,"PART-1-1",          1536,  -20.0000E-03,   400.000E-03,       2.40000,NA,NA,"",  -20.0000E-03,   400.000E-03,       2.40000,   103.611E-03
C:/Users/touze/project/Shear_centre/strip/Job-1.odb,loading,Increment      1: Step Time =    1.000,"PART-1-1",          1537,  -20.0000E-03,   350.000E-03,       2.40000,NA,NA,"",  -20.0000E-03,   350.000E-03,       2.40000,   84.7939E-03
C:/Users/touze/project/Shear_centre/strip/Job-1.odb,loading,Increment      1: Step Time =    1.000,"PART-1-1",          1538,  -20.0000E-03,   300.000E-03,       2.40000,NA,NA,"",  -20.0000E-03,   300.000E-03,       2.40000,   67.2768E-03
C:/Users/touze/project/Shear_centre/strip/Job-1.odb,loading,Increment      1: Step Time =    1.000,"PART-1-1",          1539,  -20.0000E-03,      250.E-03,       2.40000,NA,NA,"",  -20.0000E-03,      250.E-03,       2.40000,   59.9704E-03
C:/Users/touze/project/Shear_centre/strip/Job-1.odb,loading,Increment      1: Step Time =    1.000,"PART-1-1",          1540,  -20.0000E-03,   200.000E-03,       2.40000,NA,NA,"",  -20.0000E-03,   200.000E-03,       2.40000,   67.1066E-03
C:/Users/touze/project/Shear_centre/strip/Job-1.odb,loading,Increment      1: Step Time =    1.000,"PART-1-1",          1541,  -20.0000E-03,   150.000E-03,       2.40000,NA,NA,"",  -20.0000E-03,   150.000E-03,       2.40000,   84.3407E-03
C:/Users/touze/project/Shear_centre/strip/Job-1.odb,loading,Increment      1: Step Time =    1.000,"PART-1-1",          1542,  -20.0000E-03,   100.000E-03,       2.40000,NA,NA,"",  -20.0000E-03,   100.000E-03,       2.40000,   103.432E-03
C:/Users/touze/project/Shear_centre/strip/Job-1.odb,loading,Increment      1: Step Time =    1.000,"PART-1-1",          1543,  -20.0000E-03,   50.0000E-03,       2.40000,NA,NA,"",  -20.0000E-03,   50.0000E-03,       2.40000,   117.791E-03
C:/Users/touze/project/Shear_centre/strip/Job-1.odb,loading,Increment      1: Step Time =    1.000,"PART-1-1",          1544,  -20.0000E-03,            0.,       2.40000,NA,NA,"",  -20.0000E-03,            0.,       2.40000,   123.098E-03
C:/Users/touze/project/Shear_centre/strip/Job-1.odb,loading,Increment      1: Step Time =    1.000,"PART-1-1",          1545,  -20.0000E-03,  -50.0000E-03,       2.40000,NA,NA,"",  -20.0000E-03,  -50.0000E-03,       2.40000,   117.791E-03
C:/Users/touze/project/Shear_centre/strip/Job-1.odb,loading,Increment      1: Step Time =    1.000,"PART-1-1",          1546,  -20.0000E-03,  -100.000E-03,       2.40000,NA,NA,"",  -20.0000E-03,  -100.000E-03,       2.40000,   103.432E-03
C:/Users/touze/project/Shear_centre/strip/Job-1.odb,loading,Increment      1: Step Time =    1.000,"PART-1-1",          1547,  -20.0000E-03,  -150.000E-03,       2.40000,NA,NA,"",  -20.0000E-03,  -150.000E-03,       2.40000,   84.3407E-03
C:/Users/touze/project/Shear_centre/strip/Job-1.odb,loading,Increment      1: Step Time =    1.000,"PART-1-1",          1548,  -20.0000E-03,  -200.000E-03,       2.40000,NA,NA,"",  -20.0000E-03,  -200.000E-03,       2.40000,   67.1066E-03
C:/Users/touze/project/Shear_centre/strip/Job-1.odb,loading,Increment      1: Step Time =    1.000,"PART-1-1",          1549,  -20.0000E-03,     -250.E-03,       2.40000,NA,NA,"",  -20.0000E-03,     -250.E-03,       2.40000,   59.9704E-03
C:/Users/touze/project/Shear_centre/strip/Job-1.odb,loading,Increment      1: Step Time =    1.000,"PART-1-1",          1550,  -20.0000E-03,  -300.000E-03,       2.40000,NA,NA,"",  -20.0000E-03,  -300.000E-03,       2.40000,   67.2768E-03
C:/Users/touze/project/Shear_centre/strip/Job-1.odb,loading,Increment      1: Step Time =    1.000,"PART-1-1",          1551,  -20.0000E-03,  -350.000E-03,       2.40000,NA,NA,"",  -20.0000E-03,  -350.000E-03,       2.40000,   84.7939E-03
C:/Users/touze/project/Shear_centre/strip/Job-1.odb,loading,Increment      1: Step Time =    1.000,"PART-1-1",          1552,  -20.0000E-03,  -400.000E-03,       2.40000,NA,NA,"",  -20.0000E-03,  -400.000E-03,       2.40000,   103.611E-03
C:/Users/touze/project/Shear_centre/strip/Job-1.odb,loading,Increment      1: Step Time =    1.000,"PART-1-1",          1553,  -20.0000E-03,  -450.000E-03,       2.40000,NA,NA,"",  -20.0000E-03,  -450.000E-03,       2.40000,   115.890E-03
C:/Users/touze/project/Shear_centre/strip/Job-1.odb,loading,Increment      1: Step Time =    1.000,"PART-1-1",          1554,  -20.0000E-03,     -500.E-03,       2.40000,NA,NA,"",  -20.0000E-03,     -500.E-03,       2.40000,   119.622E-03
C:/Users/touze/project/Shear_centre/strip/Job-1.odb,loading,Increment      1: Step Time =    1.000,"PART-1-1",          1533,  -20.0000E-03,     -500.E-03,       2.45000,NA,NA,"",  -20.0000E-03,     -500.E-03,       2.45000,   108.660E-03
C:/Users/touze/project/Shear_centre/strip/Job-1.odb,loading,Increment      1: Step Time =    1.000,"PART-1-1",          1532,  -20.0000E-03,  -450.000E-03,       2.45000,NA,NA,"",  -20.0000E-03,  -450.000E-03,       2.45000,   105.908E-03
C:/Users/touze/project/Shear_centre/strip/Job-1.odb,loading,Increment      1: Step Time =    1.000,"PART-1-1",          1531,  -20.0000E-03,  -400.000E-03,       2.45000,NA,NA,"",  -20.0000E-03,  -400.000E-03,       2.45000,   95.8573E-03
C:/Users/touze/project/Shear_centre/strip/Job-1.odb,loading,Increment      1: Step Time =    1.000,"PART-1-1",          1530,  -20.0000E-03,  -350.000E-03,       2.45000,NA,NA,"",  -20.0000E-03,  -350.000E-03,       2.45000,   79.8423E-03
C:/Users/touze/project/Shear_centre/strip/Job-1.odb,loading,Increment      1: Step Time =    1.000,"PART-1-1",          1529,  -20.0000E-03,  -300.000E-03,       2.45000,NA,NA,"",  -20.0000E-03,  -300.000E-03,       2.45000,   65.2156E-03
C:/Users/touze/project/Shear_centre/strip/Job-1.odb,loading,Increment      1: Step Time =    1.000,"PART-1-1",          1528,  -20.0000E-03,     -250.E-03,       2.45000,NA,NA,"",  -20.0000E-03,     -250.E-03,       2.45000,   59.2286E-03
C:/Users/touze/project/Shear_centre/strip/Job-1.odb,loading,Increment      1: Step Time =    1.000,"PART-1-1",          1527,  -20.0000E-03,  -200.000E-03,       2.45000,NA,NA,"",  -20.0000E-03,  -200.000E-03,       2.45000,   64.9961E-03
C:/Users/touze/project/Shear_centre/strip/Job-1.odb,loading,Increment      1: Step Time =    1.000,"PART-1-1",          1526,  -20.0000E-03,  -150.000E-03,       2.45000,NA,NA,"",  -20.0000E-03,  -150.000E-03,       2.45000,   79.2694E-03
C:/Users/touze/project/Shear_centre/strip/Job-1.odb,loading,Increment      1: Step Time =    1.000,"PART-1-1",          1525,  -20.0000E-03,  -100.000E-03,       2.45000,NA,NA,"",  -20.0000E-03,  -100.000E-03,       2.45000,   95.4638E-03
C:/Users/touze/project/Shear_centre/strip/Job-1.odb,loading,Increment      1: Step Time =    1.000,"PART-1-1",          1524,  -20.0000E-03,  -50.0000E-03,       2.45000,NA,NA,"",  -20.0000E-03,  -50.0000E-03,       2.45000,   107.823E-03
C:/Users/touze/project/Shear_centre/strip/Job-1.odb,loading,Increment      1: Step Time =    1.000,"PART-1-1",          1523,  -20.0000E-03,            0.,       2.45000,NA,NA,"",  -20.0000E-03,            0.,       2.45000,   112.418E-03
C:/Users/touze/project/Shear_centre/strip/Job-1.odb,loading,Increment      1: Step Time =    1.000,"PART-1-1",          1522,  -20.0000E-03,   50.0000E-03,       2.45000,NA,NA,"",  -20.0000E-03,   50.0000E-03,       2.45000,   107.823E-03
C:/Users/touze/project/Shear_centre/strip/Job-1.odb,loading,Increment      1: Step Time =    1.000,"PART-1-1",          1521,  -20.0000E-03,   100.000E-03,       2.45000,NA,NA,"",  -20.0000E-03,   100.000E-03,       2.45000,   95.4638E-03
C:/Users/touze/project/Shear_centre/strip/Job-1.odb,loading,Increment      1: Step Time =    1.000,"PART-1-1",          1520,  -20.0000E-03,   150.000E-03,       2.45000,NA,NA,"",  -20.0000E-03,   150.000E-03,       2.45000,   79.2694E-03
C:/Users/touze/project/Shear_centre/strip/Job-1.odb,loading,Increment      1: Step Time =    1.000,"PART-1-1",          1519,  -20.0000E-03,   200.000E-03,       2.45000,NA,NA,"",  -20.0000E-03,   200.000E-03,       2.45000,   64.9961E-03
C:/Users/touze/project/Shear_centre/strip/Job-1.odb,loading,Increment      1: Step Time =    1.000,"PART-1-1",          1518,  -20.0000E-03,      250.E-03,       2.45000,NA,NA,"",  -20.0000E-03,      250.E-03,       2.45000,   59.2286E-03
C:/Users/touze/project/Shear_centre/strip/Job-1.odb,loading,Increment      1: Step Time =    1.000,"PART-1-1",          1517,  -20.0000E-03,   300.000E-03,       2.45000,NA,NA,"",  -20.0000E-03,   300.000E-03,       2.45000,   65.2156E-03
C:/Users/touze/project/Shear_centre/strip/Job-1.odb,loading,Increment      1: Step Time =    1.000,"PART-1-1",          1516,  -20.0000E-03,   350.000E-03,       2.45000,NA,NA,"",  -20.0000E-03,   350.000E-03,       2.45000,   79.8424E-03
C:/Users/touze/project/Shear_centre/strip/Job-1.odb,loading,Increment      1: Step Time =    1.000,"PART-1-1",          1515,  -20.0000E-03,   400.000E-03,       2.45000,NA,NA,"",  -20.0000E-03,   400.000E-03,       2.45000,   95.8573E-03
C:/Users/touze/project/Shear_centre/strip/Job-1.odb,loading,Increment      1: Step Time =    1.000,"PART-1-1",          1514,  -20.0000E-03,   450.000E-03,       2.45000,NA,NA,"",  -20.0000E-03,   450.000E-03,       2.45000,   105.908E-03
C:/Users/touze/project/Shear_centre/strip/Job-1.odb,loading,Increment      1: Step Time =    1.000,"PART-1-1",          1513,  -20.0000E-03,      500.E-03,       2.45000,NA,NA,"",  -20.0000E-03,      500.E-03,       2.45000,   108.660E-03
C:/Users/touze/project/Shear_centre/strip/Job-1.odb,loading,Increment      1: Step Time =    1.000,"PART-1-1",           233,   20.0000E-03,   450.000E-03,       2.45000,NA,NA,"",   20.0000E-03,   450.000E-03,       2.45000,   105.908E-03
C:/Users/touze/project/Shear_centre/strip/Job-1.odb,loading,Increment      1: Step Time =    1.000,"PART-1-1",           234,   20.0000E-03,   400.000E-03,       2.45000,NA,NA,"",   20.0000E-03,   400.000E-03,       2.45000,   95.8573E-03
C:/Users/touze/project/Shear_centre/strip/Job-1.odb,loading,Increment      1: Step Time =    1.000,"PART-1-1",           235,   20.0000E-03,   350.000E-03,       2.45000,NA,NA,"",   20.0000E-03,   350.000E-03,       2.45000,   79.8424E-03
C:/Users/touze/project/Shear_centre/strip/Job-1.odb,loading,Increment      1: Step Time =    1.000,"PART-1-1",           236,   20.0000E-03,   300.000E-03,       2.45000,NA,NA,"",   20.0000E-03,   300.000E-03,       2.45000,   65.2156E-03
C:/Users/touze/project/Shear_centre/strip/Job-1.odb,loading,Increment      1: Step Time =    1.000,"PART-1-1",           237,   20.0000E-03,      250.E-03,       2.45000,NA,NA,"",   20.0000E-03,      250.E-03,       2.45000,   59.2286E-03
C:/Users/touze/project/Shear_centre/strip/Job-1.odb,loading,Increment      1: Step Time =    1.000,"PART-1-1",           238,   20.0000E-03,   200.000E-03,       2.45000,NA,NA,"",   20.0000E-03,   200.000E-03,       2.45000,   64.9961E-03
C:/Users/touze/project/Shear_centre/strip/Job-1.odb,loading,Increment      1: Step Time =    1.000,"PART-1-1",           239,   20.0000E-03,   150.000E-03,       2.45000,NA,NA,"",   20.0000E-03,   150.000E-03,       2.45000,   79.2694E-03
C:/Users/touze/project/Shear_centre/strip/Job-1.odb,loading,Increment      1: Step Time =    1.000,"PART-1-1",           240,   20.0000E-03,   100.000E-03,       2.45000,NA,NA,"",   20.0000E-03,   100.000E-03,       2.45000,   95.4638E-03
C:/Users/touze/project/Shear_centre/strip/Job-1.odb,loading,Increment      1: Step Time =    1.000,"PART-1-1",           241,   20.0000E-03,   50.0000E-03,       2.45000,NA,NA,"",   20.0000E-03,   50.0000E-03,       2.45000,   107.823E-03
C:/Users/touze/project/Shear_centre/strip/Job-1.odb,loading,Increment      1: Step Time =    1.000,"PART-1-1",           242,   20.0000E-03,            0.,       2.45000,NA,NA,"",   20.0000E-03,            0.,       2.45000,   112.418E-03
C:/Users/touze/project/Shear_centre/strip/Job-1.odb,loading,Increment      1: Step Time =    1.000,"PART-1-1",           232,   20.0000E-03,      500.E-03,       2.45000,NA,NA,"",   20.0000E-03,      500.E-03,       2.45000,   108.660E-03
C:/Users/touze/project/Shear_centre/strip/Job-1.odb,loading,Increment      1: Step Time =    1.000,"PART-1-1",           243,   20.0000E-03,  -50.0000E-03,       2.45000,NA,NA,"",   20.0000E-03,  -50.0000E-03,       2.45000,   107.823E-03
C:/Users/touze/project/Shear_centre/strip/Job-1.odb,loading,Increment      1: Step Time =    1.000,"PART-1-1",           244,   20.0000E-03,  -100.000E-03,       2.45000,NA,NA,"",   20.0000E-03,  -100.000E-03,       2.45000,   95.4638E-03
C:/Users/touze/project/Shear_centre/strip/Job-1.odb,loading,Increment      1: Step Time =    1.000,"PART-1-1",           245,   20.0000E-03,  -150.000E-03,       2.45000,NA,NA,"",   20.0000E-03,  -150.000E-03,       2.45000,   79.2694E-03
C:/Users/touze/project/Shear_centre/strip/Job-1.odb,loading,Increment      1: Step Time =    1.000,"PART-1-1",           246,   20.0000E-03,  -200.000E-03,       2.45000,NA,NA,"",   20.0000E-03,  -200.000E-03,       2.45000,   64.9961E-03
C:/Users/touze/project/Shear_centre/strip/Job-1.odb,loading,Increment      1: Step Time =    1.000,"PART-1-1",           247,   20.0000E-03,     -250.E-03,       2.45000,NA,NA,"",   20.0000E-03,     -250.E-03,       2.45000,   59.2286E-03
C:/Users/touze/project/Shear_centre/strip/Job-1.odb,loading,Increment      1: Step Time =    1.000,"PART-1-1",           248,   20.0000E-03,  -300.000E-03,       2.45000,NA,NA,"",   20.0000E-03,  -300.000E-03,       2.45000,   65.2156E-03
C:/Users/touze/project/Shear_centre/strip/Job-1.odb,loading,Increment      1: Step Time =    1.000,"PART-1-1",           249,   20.0000E-03,  -350.000E-03,       2.45000,NA,NA,"",   20.0000E-03,  -350.000E-03,       2.45000,   79.8423E-03
C:/Users/touze/project/Shear_centre/strip/Job-1.odb,loading,Increment      1: Step Time =    1.000,"PART-1-1",           250,   20.0000E-03,  -400.000E-03,       2.45000,NA,NA,"",   20.0000E-03,  -400.000E-03,       2.45000,   95.8573E-03
C:/Users/touze/project/Shear_centre/strip/Job-1.odb,loading,Increment      1: Step Time =    1.000,"PART-1-1",           251,   20.0000E-03,  -450.000E-03,       2.45000,NA,NA,"",   20.0000E-03,  -450.000E-03,       2.45000,   105.908E-03
C:/Users/touze/project/Shear_centre/strip/Job-1.odb,loading,Increment      1: Step Time =    1.000,"PART-1-1",           252,   20.0000E-03,     -500.E-03,       2.45000,NA,NA,"",   20.0000E-03,     -500.E-03,       2.45000,   108.660E-03
C:/Users/touze/project/Shear_centre/strip/Job-1.odb,loading,Increment      1: Step Time =    1.000,"PART-1-1",          1512,  -20.0000E-03,     -500.E-03,           2.5,NA,NA,"",  -20.0000E-03,     -500.E-03,           2.5,   97.6592E-03
C:/Users/touze/project/Shear_centre/strip/Job-1.odb,loading,Increment      1: Step Time =    1.000,"PART-1-1",          1511,  -20.0000E-03,  -450.000E-03,           2.5,NA,NA,"",  -20.0000E-03,  -450.000E-03,           2.5,   95.8966E-03
C:/Users/touze/project/Shear_centre/strip/Job-1.odb,loading,Increment      1: Step Time =    1.000,"PART-1-1",          1510,  -20.0000E-03,  -400.000E-03,           2.5,NA,NA,"",  -20.0000E-03,  -400.000E-03,           2.5,   88.1234E-03
C:/Users/touze/project/Shear_centre/strip/Job-1.odb,loading,Increment      1: Step Time =    1.000,"PART-1-1",          1509,  -20.0000E-03,  -350.000E-03,           2.5,NA,NA,"",  -20.0000E-03,  -350.000E-03,           2.5,   74.9962E-03
C:/Users/touze/project/Shear_centre/strip/Job-1.odb,loading,Increment      1: Step Time =    1.000,"PART-1-1",          1508,  -20.0000E-03,  -300.000E-03,           2.5,NA,NA,"",  -20.0000E-03,  -300.000E-03,           2.5,   63.2666E-03
C:/Users/touze/project/Shear_centre/strip/Job-1.odb,loading,Increment      1: Step Time =    1.000,"PART-1-1",          1507,  -20.0000E-03,     -250.E-03,           2.5,NA,NA,"",  -20.0000E-03,     -250.E-03,           2.5,   58.5586E-03
C:/Users/touze/project/Shear_centre/strip/Job-1.odb,loading,Increment      1: Step Time =    1.000,"PART-1-1",          1506,  -20.0000E-03,  -200.000E-03,           2.5,NA,NA,"",  -20.0000E-03,  -200.000E-03,           2.5,   63.0000E-03
C:/Users/touze/project/Shear_centre/strip/Job-1.odb,loading,Increment      1: Step Time =    1.000,"PART-1-1",          1505,  -20.0000E-03,  -150.000E-03,           2.5,NA,NA,"",  -20.0000E-03,  -150.000E-03,           2.5,   74.3460E-03
C:/Users/touze/project/Shear_centre/strip/Job-1.odb,loading,Increment      1: Step Time =    1.000,"PART-1-1",          1504,  -20.0000E-03,  -100.000E-03,           2.5,NA,NA,"",  -20.0000E-03,  -100.000E-03,           2.5,   87.5988E-03
C:/Users/touze/project/Shear_centre/strip/Job-1.odb,loading,Increment      1: Step Time =    1.000,"PART-1-1",          1503,  -20.0000E-03,  -50.0000E-03,           2.5,NA,NA,"",  -20.0000E-03,  -50.0000E-03,           2.5,   97.9056E-03
C:/Users/touze/project/Shear_centre/strip/Job-1.odb,loading,Increment      1: Step Time =    1.000,"PART-1-1",          1501,  -20.0000E-03,   50.0000E-03,           2.5,NA,NA,"",  -20.0000E-03,   50.0000E-03,           2.5,   97.9056E-03
C:/Users/touze/project/Shear_centre/strip/Job-1.odb,loading,Increment      1: Step Time =    1.000,"PART-1-1",          1500,  -20.0000E-03,   100.000E-03,           2.5,NA,NA,"",  -20.0000E-03,   100.000E-03,           2.5,   87.5988E-03
C:/Users/touze/project/Shear_centre/strip/Job-1.odb,loading,Increment      1: Step Time =    1.000,"PART-1-1",          1499,  -20.0000E-03,   150.000E-03,           2.5,NA,NA,"",  -20.0000E-03,   150.000E-03,           2.5,   74.3460E-03
C:/Users/touze/project/Shear_centre/strip/Job-1.odb,loading,Increment      1: Step Time =    1.000,"PART-1-1",          1498,  -20.0000E-03,   200.000E-03,           2.5,NA,NA,"",  -20.0000E-03,   200.000E-03,           2.5,   63.0000E-03
C:/Users/touze/project/Shear_centre/strip/Job-1.odb,loading,Increment      1: Step Time =    1.000,"PART-1-1",          1497,  -20.0000E-03,      250.E-03,           2.5,NA,NA,"",  -20.0000E-03,      250.E-03,           2.5,   58.5586E-03
C:/Users/touze/project/Shear_centre/strip/Job-1.odb,loading,Increment      1: Step Time =    1.000,"PART-1-1",          1496,  -20.0000E-03,   300.000E-03,           2.5,NA,NA,"",  -20.0000E-03,   300.000E-03,           2.5,   63.2666E-03
C:/Users/touze/project/Shear_centre/strip/Job-1.odb,loading,Increment      1: Step Time =    1.000,"PART-1-1",          1495,  -20.0000E-03,   350.000E-03,           2.5,NA,NA,"",  -20.0000E-03,   350.000E-03,           2.5,   74.9962E-03
C:/Users/touze/project/Shear_centre/strip/Job-1.odb,loading,Increment      1: Step Time =    1.000,"PART-1-1",          1494,  -20.0000E-03,   400.000E-03,           2.5,NA,NA,"",  -20.0000E-03,   400.000E-03,           2.5,   88.1234E-03
C:/Users/touze/project/Shear_centre/strip/Job-1.odb,loading,Increment      1: Step Time =    1.000,"PART-1-1",          1493,  -20.0000E-03,   450.000E-03,           2.5,NA,NA,"",  -20.0000E-03,   450.000E-03,           2.5,   95.8966E-03
C:/Users/touze/project/Shear_centre/strip/Job-1.odb,loading,Increment      1: Step Time =    1.000,"PART-1-1",          1492,  -20.0000E-03,      500.E-03,           2.5,NA,NA,"",  -20.0000E-03,      500.E-03,           2.5,   97.6592E-03
C:/Users/touze/project/Shear_centre/strip/Job-1.odb,loading,Increment      1: Step Time =    1.000,"PART-1-1",          1502,  -20.0000E-03,            0.,           2.5,NA,NA,"",  -20.0000E-03,            0.,           2.5,   101.769E-03
C:/Users/touze/project/Shear_centre/strip/Job-1.odb,loading,Increment      1: Step Time =    1.000,"PART-1-1",           211,   20.0000E-03,      500.E-03,           2.5,NA,NA,"",   20.0000E-03,      500.E-03,           2.5,   97.6592E-03
C:/Users/touze/project/Shear_centre/strip/Job-1.odb,loading,Increment      1: Step Time =    1.000,"PART-1-1",           212,   20.0000E-03,   450.000E-03,           2.5,NA,NA,"",   20.0000E-03,   450.000E-03,           2.5,   95.8966E-03
C:/Users/touze/project/Shear_centre/strip/Job-1.odb,loading,Increment      1: Step Time =    1.000,"PART-1-1",           213,   20.0000E-03,   400.000E-03,           2.5,NA,NA,"",   20.0000E-03,   400.000E-03,           2.5,   88.1234E-03
C:/Users/touze/project/Shear_centre/strip/Job-1.odb,loading,Increment      1: Step Time =    1.000,"PART-1-1",           214,   20.0000E-03,   350.000E-03,           2.5,NA,NA,"",   20.0000E-03,   350.000E-03,           2.5,   74.9962E-03
C:/Users/touze/project/Shear_centre/strip/Job-1.odb,loading,Increment      1: Step Time =    1.000,"PART-1-1",           215,   20.0000E-03,   300.000E-03,           2.5,NA,NA,"",   20.0000E-03,   300.000E-03,           2.5,   63.2666E-03
C:/Users/touze/project/Shear_centre/strip/Job-1.odb,loading,Increment      1: Step Time =    1.000,"PART-1-1",           216,   20.0000E-03,      250.E-03,           2.5,NA,NA,"",   20.0000E-03,      250.E-03,           2.5,   58.5586E-03
C:/Users/touze/project/Shear_centre/strip/Job-1.odb,loading,Increment      1: Step Time =    1.000,"PART-1-1",           217,   20.0000E-03,   200.000E-03,           2.5,NA,NA,"",   20.0000E-03,   200.000E-03,           2.5,   63.0000E-03
C:/Users/touze/project/Shear_centre/strip/Job-1.odb,loading,Increment      1: Step Time =    1.000,"PART-1-1",           218,   20.0000E-03,   150.000E-03,           2.5,NA,NA,"",   20.0000E-03,   150.000E-03,           2.5,   74.3460E-03
C:/Users/touze/project/Shear_centre/strip/Job-1.odb,loading,Increment      1: Step Time =    1.000,"PART-1-1",           219,   20.0000E-03,   100.000E-03,           2.5,NA,NA,"",   20.0000E-03,   100.000E-03,           2.5,   87.5988E-03
C:/Users/touze/project/Shear_centre/strip/Job-1.odb,loading,Increment      1: Step Time =    1.000,"PART-1-1",           220,   20.0000E-03,   50.0000E-03,           2.5,NA,NA,"",   20.0000E-03,   50.0000E-03,           2.5,   97.9056E-03
C:/Users/touze/project/Shear_centre/strip/Job-1.odb,loading,Increment      1: Step Time =    1.000,"PART-1-1",           221,   20.0000E-03,            0.,           2.5,NA,NA,"",   20.0000E-03,            0.,           2.5,   101.769E-03
C:/Users/touze/project/Shear_centre/strip/Job-1.odb,loading,Increment      1: Step Time =    1.000,"PART-1-1",           222,   20.0000E-03,  -50.0000E-03,           2.5,NA,NA,"",   20.0000E-03,  -50.0000E-03,           2.5,   97.9056E-03
C:/Users/touze/project/Shear_centre/strip/Job-1.odb,loading,Increment      1: Step Time =    1.000,"PART-1-1",           223,   20.0000E-03,  -100.000E-03,           2.5,NA,NA,"",   20.0000E-03,  -100.000E-03,           2.5,   87.5988E-03
C:/Users/touze/project/Shear_centre/strip/Job-1.odb,loading,Increment      1: Step Time =    1.000,"PART-1-1",           224,   20.0000E-03,  -150.000E-03,           2.5,NA,NA,"",   20.0000E-03,  -150.000E-03,           2.5,   74.3460E-03
C:/Users/touze/project/Shear_centre/strip/Job-1.odb,loading,Increment      1: Step Time =    1.000,"PART-1-1",           225,   20.0000E-03,  -200.000E-03,           2.5,NA,NA,"",   20.0000E-03,  -200.000E-03,           2.5,   63.0000E-03
C:/Users/touze/project/Shear_centre/strip/Job-1.odb,loading,Increment      1: Step Time =    1.000,"PART-1-1",           226,   20.0000E-03,     -250.E-03,           2.5,NA,NA,"",   20.0000E-03,     -250.E-03,           2.5,   58.5586E-03
C:/Users/touze/project/Shear_centre/strip/Job-1.odb,loading,Increment      1: Step Time =    1.000,"PART-1-1",           227,   20.0000E-03,  -300.000E-03,           2.5,NA,NA,"",   20.0000E-03,  -300.000E-03,           2.5,   63.2666E-03
C:/Users/touze/project/Shear_centre/strip/Job-1.odb,loading,Increment      1: Step Time =    1.000,"PART-1-1",           228,   20.0000E-03,  -350.000E-03,           2.5,NA,NA,"",   20.0000E-03,  -350.000E-03,           2.5,   74.9962E-03
C:/Users/touze/project/Shear_centre/strip/Job-1.odb,loading,Increment      1: Step Time =    1.000,"PART-1-1",           229,   20.0000E-03,  -400.000E-03,           2.5,NA,NA,"",   20.0000E-03,  -400.000E-03,           2.5,   88.1234E-03
C:/Users/touze/project/Shear_centre/strip/Job-1.odb,loading,Increment      1: Step Time =    1.000,"PART-1-1",           230,   20.0000E-03,  -450.000E-03,           2.5,NA,NA,"",   20.0000E-03,  -450.000E-03,           2.5,   95.8966E-03
C:/Users/touze/project/Shear_centre/strip/Job-1.odb,loading,Increment      1: Step Time =    1.000,"PART-1-1",           231,   20.0000E-03,     -500.E-03,           2.5,NA,NA,"",   20.0000E-03,     -500.E-03,           2.5,   97.6592E-03
C:/Users/touze/project/Shear_centre/strip/Job-1.odb,loading,Increment      1: Step Time =    1.000,"PART-1-1",           210,   20.0000E-03,     -500.E-03,       2.55000,NA,NA,"",   20.0000E-03,     -500.E-03,       2.55000,   86.7878E-03
C:/Users/touze/project/Shear_centre/strip/Job-1.odb,loading,Increment      1: Step Time =    1.000,"PART-1-1",           209,   20.0000E-03,  -450.000E-03,       2.55000,NA,NA,"",   20.0000E-03,  -450.000E-03,       2.55000,   86.1619E-03
C:/Users/touze/project/Shear_centre/strip/Job-1.odb,loading,Increment      1: Step Time =    1.000,"PART-1-1",           208,   20.0000E-03,  -400.000E-03,       2.55000,NA,NA,"",   20.0000E-03,  -400.000E-03,       2.55000,   80.7547E-03
C:/Users/touze/project/Shear_centre/strip/Job-1.odb,loading,Increment      1: Step Time =    1.000,"PART-1-1",           207,   20.0000E-03,  -350.000E-03,       2.55000,NA,NA,"",   20.0000E-03,  -350.000E-03,       2.55000,   70.4107E-03
C:/Users/touze/project/Shear_centre/strip/Job-1.odb,loading,Increment      1: Step Time =    1.000,"PART-1-1",           206,   20.0000E-03,  -300.000E-03,       2.55000,NA,NA,"",   20.0000E-03,  -300.000E-03,       2.55000,   61.4447E-03
C:/Users/touze/project/Shear_centre/strip/Job-1.odb,loading,Increment      1: Step Time =    1.000,"PART-1-1",           205,   20.0000E-03,     -250.E-03,       2.55000,NA,NA,"",   20.0000E-03,     -250.E-03,       2.55000,   57.9333E-03
C:/Users/touze/project/Shear_centre/strip/Job-1.odb,loading,Increment      1: Step Time =    1.000,"PART-1-1",           204,   20.0000E-03,  -200.000E-03,       2.55000,NA,NA,"",   20.0000E-03,  -200.000E-03,       2.55000,   61.1308E-03
C:/Users/touze/project/Shear_centre/strip/Job-1.odb,loading,Increment      1: Step Time =    1.000,"PART-1-1",           203,   20.0000E-03,  -150.000E-03,       2.55000,NA,NA,"",   20.0000E-03,  -150.000E-03,       2.55000,   69.6398E-03
C:/Users/touze/project/Shear_centre/strip/Job-1.odb,loading,Increment      1: Step Time =    1.000,"PART-1-1",           202,   20.0000E-03,  -100.000E-03,       2.55000,NA,NA,"",   20.0000E-03,  -100.000E-03,       2.55000,   79.9373E-03
C:/Users/touze/project/Shear_centre/strip/Job-1.odb,loading,Increment      1: Step Time =    1.000,"PART-1-1",           201,   20.0000E-03,  -50.0000E-03,       2.55000,NA,NA,"",   20.0000E-03,  -50.0000E-03,       2.55000,   88.1451E-03
C:/Users/touze/project/Shear_centre/strip/Job-1.odb,loading,Increment      1: Step Time =    1.000,"PART-1-1",           200,   20.0000E-03,            0.,       2.55000,NA,NA,"",   20.0000E-03,            0.,       2.55000,   91.2586E-03
C:/Users/touze/project/Shear_centre/strip/Job-1.odb,loading,Increment      1: Step Time =    1.000,"PART-1-1",           199,   20.0000E-03,   50.0000E-03,       2.55000,NA,NA,"",   20.0000E-03,   50.0000E-03,       2.55000,   88.1451E-03
C:/Users/touze/project/Shear_centre/strip/Job-1.odb,loading,Increment      1: Step Time =    1.000,"PART-1-1",           198,   20.0000E-03,   100.000E-03,       2.55000,NA,NA,"",   20.0000E-03,   100.000E-03,       2.55000,   79.9373E-03
C:/Users/touze/project/Shear_centre/strip/Job-1.odb,loading,Increment      1: Step Time =    1.000,"PART-1-1",           197,   20.0000E-03,   150.000E-03,       2.55000,NA,NA,"",   20.0000E-03,   150.000E-03,       2.55000,   69.6398E-03
C:/Users/touze/project/Shear_centre/strip/Job-1.odb,loading,Increment      1: Step Time =    1.000,"PART-1-1",           196,   20.0000E-03,   200.000E-03,       2.55000,NA,NA,"",   20.0000E-03,   200.000E-03,       2.55000,   61.1308E-03
C:/Users/touze/project/Shear_centre/strip/Job-1.odb,loading,Increment      1: Step Time =    1.000,"PART-1-1",           195,   20.0000E-03,      250.E-03,       2.55000,NA,NA,"",   20.0000E-03,      250.E-03,       2.55000,   57.9333E-03
C:/Users/touze/project/Shear_centre/strip/Job-1.odb,loading,Increment      1: Step Time =    1.000,"PART-1-1",           194,   20.0000E-03,   300.000E-03,       2.55000,NA,NA,"",   20.0000E-03,   300.000E-03,       2.55000,   61.4447E-03
C:/Users/touze/project/Shear_centre/strip/Job-1.odb,loading,Increment      1: Step Time =    1.000,"PART-1-1",           193,   20.0000E-03,   350.000E-03,       2.55000,NA,NA,"",   20.0000E-03,   350.000E-03,       2.55000,   70.4107E-03
C:/Users/touze/project/Shear_centre/strip/Job-1.odb,loading,Increment      1: Step Time =    1.000,"PART-1-1",           192,   20.0000E-03,   400.000E-03,       2.55000,NA,NA,"",   20.0000E-03,   400.000E-03,       2.55000,   80.7547E-03
C:/Users/touze/project/Shear_centre/strip/Job-1.odb,loading,Increment      1: Step Time =    1.000,"PART-1-1",           191,   20.0000E-03,   450.000E-03,       2.55000,NA,NA,"",   20.0000E-03,   450.000E-03,       2.55000,   86.1619E-03
C:/Users/touze/project/Shear_centre/strip/Job-1.odb,loading,Increment      1: Step Time =    1.000,"PART-1-1",           190,   20.0000E-03,      500.E-03,       2.55000,NA,NA,"",   20.0000E-03,      500.E-03,       2.55000,   86.7878E-03
C:/Users/touze/project/Shear_centre/strip/Job-1.odb,loading,Increment      1: Step Time =    1.000,"PART-1-1",          1491,  -20.0000E-03,     -500.E-03,       2.55000,NA,NA,"",  -20.0000E-03,     -500.E-03,       2.55000,   86.7878E-03
C:/Users/touze/project/Shear_centre/strip/Job-1.odb,loading,Increment      1: Step Time =    1.000,"PART-1-1",          1490,  -20.0000E-03,  -450.000E-03,       2.55000,NA,NA,"",  -20.0000E-03,  -450.000E-03,       2.55000,   86.1619E-03
C:/Users/touze/project/Shear_centre/strip/Job-1.odb,loading,Increment      1: Step Time =    1.000,"PART-1-1",          1489,  -20.0000E-03,  -400.000E-03,       2.55000,NA,NA,"",  -20.0000E-03,  -400.000E-03,       2.55000,   80.7547E-03
C:/Users/touze/project/Shear_centre/strip/Job-1.odb,loading,Increment      1: Step Time =    1.000,"PART-1-1",          1488,  -20.0000E-03,  -350.000E-03,       2.55000,NA,NA,"",  -20.0000E-03,  -350.000E-03,       2.55000,   70.4107E-03
C:/Users/touze/project/Shear_centre/strip/Job-1.odb,loading,Increment      1: Step Time =    1.000,"PART-1-1",          1487,  -20.0000E-03,  -300.000E-03,       2.55000,NA,NA,"",  -20.0000E-03,  -300.000E-03,       2.55000,   61.4447E-03
C:/Users/touze/project/Shear_centre/strip/Job-1.odb,loading,Increment      1: Step Time =    1.000,"PART-1-1",          1486,  -20.0000E-03,     -250.E-03,       2.55000,NA,NA,"",  -20.0000E-03,     -250.E-03,       2.55000,   57.9333E-03
C:/Users/touze/project/Shear_centre/strip/Job-1.odb,loading,Increment      1: Step Time =    1.000,"PART-1-1",          1485,  -20.0000E-03,  -200.000E-03,       2.55000,NA,NA,"",  -20.0000E-03,  -200.000E-03,       2.55000,   61.1308E-03
C:/Users/touze/project/Shear_centre/strip/Job-1.odb,loading,Increment      1: Step Time =    1.000,"PART-1-1",          1484,  -20.0000E-03,  -150.000E-03,       2.55000,NA,NA,"",  -20.0000E-03,  -150.000E-03,       2.55000,   69.6398E-03
C:/Users/touze/project/Shear_centre/strip/Job-1.odb,loading,Increment      1: Step Time =    1.000,"PART-1-1",          1483,  -20.0000E-03,  -100.000E-03,       2.55000,NA,NA,"",  -20.0000E-03,  -100.000E-03,       2.55000,   79.9373E-03
C:/Users/touze/project/Shear_centre/strip/Job-1.odb,loading,Increment      1: Step Time =    1.000,"PART-1-1",          1482,  -20.0000E-03,  -50.0000E-03,       2.55000,NA,NA,"",  -20.0000E-03,  -50.0000E-03,       2.55000,   88.1451E-03
C:/Users/touze/project/Shear_centre/strip/Job-1.odb,loading,Increment      1: Step Time =    1.000,"PART-1-1",          1481,  -20.0000E-03,            0.,       2.55000,NA,NA,"",  -20.0000E-03,            0.,       2.55000,   91.2586E-03
C:/Users/touze/project/Shear_centre/strip/Job-1.odb,loading,Increment      1: Step Time =    1.000,"PART-1-1",          1480,  -20.0000E-03,   50.0000E-03,       2.55000,NA,NA,"",  -20.0000E-03,   50.0000E-03,       2.55000,   88.1451E-03
C:/Users/touze/project/Shear_centre/strip/Job-1.odb,loading,Increment      1: Step Time =    1.000,"PART-1-1",          1479,  -20.0000E-03,   100.000E-03,       2.55000,NA,NA,"",  -20.0000E-03,   100.000E-03,       2.55000,   79.9373E-03
C:/Users/touze/project/Shear_centre/strip/Job-1.odb,loading,Increment      1: Step Time =    1.000,"PART-1-1",          1478,  -20.0000E-03,   150.000E-03,       2.55000,NA,NA,"",  -20.0000E-03,   150.000E-03,       2.55000,   69.6398E-03
C:/Users/touze/project/Shear_centre/strip/Job-1.odb,loading,Increment      1: Step Time =    1.000,"PART-1-1",          1477,  -20.0000E-03,   200.000E-03,       2.55000,NA,NA,"",  -20.0000E-03,   200.000E-03,       2.55000,   61.1308E-03
C:/Users/touze/project/Shear_centre/strip/Job-1.odb,loading,Increment      1: Step Time =    1.000,"PART-1-1",          1476,  -20.0000E-03,      250.E-03,       2.55000,NA,NA,"",  -20.0000E-03,      250.E-03,       2.55000,   57.9333E-03
C:/Users/touze/project/Shear_centre/strip/Job-1.odb,loading,Increment      1: Step Time =    1.000,"PART-1-1",          1475,  -20.0000E-03,   300.000E-03,       2.55000,NA,NA,"",  -20.0000E-03,   300.000E-03,       2.55000,   61.4447E-03
C:/Users/touze/project/Shear_centre/strip/Job-1.odb,loading,Increment      1: Step Time =    1.000,"PART-1-1",          1474,  -20.0000E-03,   350.000E-03,       2.55000,NA,NA,"",  -20.0000E-03,   350.000E-03,       2.55000,   70.4107E-03
C:/Users/touze/project/Shear_centre/strip/Job-1.odb,loading,Increment      1: Step Time =    1.000,"PART-1-1",          1473,  -20.0000E-03,   400.000E-03,       2.55000,NA,NA,"",  -20.0000E-03,   400.000E-03,       2.55000,   80.7547E-03
C:/Users/touze/project/Shear_centre/strip/Job-1.odb,loading,Increment      1: Step Time =    1.000,"PART-1-1",          1472,  -20.0000E-03,   450.000E-03,       2.55000,NA,NA,"",  -20.0000E-03,   450.000E-03,       2.55000,   86.1619E-03
C:/Users/touze/project/Shear_centre/strip/Job-1.odb,loading,Increment      1: Step Time =    1.000,"PART-1-1",          1471,  -20.0000E-03,      500.E-03,       2.55000,NA,NA,"",  -20.0000E-03,      500.E-03,       2.55000,   86.7878E-03
C:/Users/touze/project/Shear_centre/strip/Job-1.odb,loading,Increment      1: Step Time =    1.000,"PART-1-1",           189,   20.0000E-03,     -500.E-03,       2.60000,NA,NA,"",   20.0000E-03,     -500.E-03,       2.60000,   75.7767E-03
C:/Users/touze/project/Shear_centre/strip/Job-1.odb,loading,Increment      1: Step Time =    1.000,"PART-1-1",           188,   20.0000E-03,  -450.000E-03,       2.60000,NA,NA,"",   20.0000E-03,  -450.000E-03,       2.60000,   76.2893E-03
C:/Users/touze/project/Shear_centre/strip/Job-1.odb,loading,Increment      1: Step Time =    1.000,"PART-1-1",           187,   20.0000E-03,  -400.000E-03,       2.60000,NA,NA,"",   20.0000E-03,  -400.000E-03,       2.60000,   73.3076E-03
C:/Users/touze/project/Shear_centre/strip/Job-1.odb,loading,Increment      1: Step Time =    1.000,"PART-1-1",           186,   20.0000E-03,  -350.000E-03,       2.60000,NA,NA,"",   20.0000E-03,  -350.000E-03,       2.60000,   65.8911E-03
C:/Users/touze/project/Shear_centre/strip/Job-1.odb,loading,Increment      1: Step Time =    1.000,"PART-1-1",           185,   20.0000E-03,  -300.000E-03,       2.60000,NA,NA,"",   20.0000E-03,  -300.000E-03,       2.60000,   59.7424E-03
C:/Users/touze/project/Shear_centre/strip/Job-1.odb,loading,Increment      1: Step Time =    1.000,"PART-1-1",           184,   20.0000E-03,     -250.E-03,       2.60000,NA,NA,"",   20.0000E-03,     -250.E-03,       2.60000,   57.4054E-03
C:/Users/touze/project/Shear_centre/strip/Job-1.odb,loading,Increment      1: Step Time =    1.000,"PART-1-1",           183,   20.0000E-03,  -200.000E-03,       2.60000,NA,NA,"",   20.0000E-03,  -200.000E-03,       2.60000,   59.4216E-03
C:/Users/touze/project/Shear_centre/strip/Job-1.odb,loading,Increment      1: Step Time =    1.000,"PART-1-1",           182,   20.0000E-03,  -150.000E-03,       2.60000,NA,NA,"",   20.0000E-03,  -150.000E-03,       2.60000,   65.1306E-03
C:/Users/touze/project/Shear_centre/strip/Job-1.odb,loading,Increment      1: Step Time =    1.000,"PART-1-1",           181,   20.0000E-03,  -100.000E-03,       2.60000,NA,NA,"",   20.0000E-03,  -100.000E-03,       2.60000,   72.3806E-03
C:/Users/touze/project/Shear_centre/strip/Job-1.odb,loading,Increment      1: Step Time =    1.000,"PART-1-1",           180,   20.0000E-03,  -50.0000E-03,       2.60000,NA,NA,"",   20.0000E-03,  -50.0000E-03,       2.60000,   78.3650E-03
C:/Users/touze/project/Shear_centre/strip/Job-1.odb,loading,Increment      1: Step Time =    1.000,"PART-1-1",           179,   20.0000E-03,            0.,       2.60000,NA,NA,"",   20.0000E-03,            0.,       2.60000,   80.6818E-03
C:/Users/touze/project/Shear_centre/strip/Job-1.odb,loading,Increment      1: Step Time =    1.000,"PART-1-1",           178,   20.0000E-03,   50.0000E-03,       2.60000,NA,NA,"",   20.0000E-03,   50.0000E-03,       2.60000,   78.3650E-03
C:/Users/touze/project/Shear_centre/strip/Job-1.odb,loading,Increment      1: Step Time =    1.000,"PART-1-1",           177,   20.0000E-03,   100.000E-03,       2.60000,NA,NA,"",   20.0000E-03,   100.000E-03,       2.60000,   72.3806E-03
C:/Users/touze/project/Shear_centre/strip/Job-1.odb,loading,Increment      1: Step Time =    1.000,"PART-1-1",           176,   20.0000E-03,   150.000E-03,       2.60000,NA,NA,"",   20.0000E-03,   150.000E-03,       2.60000,   65.1306E-03
C:/Users/touze/project/Shear_centre/strip/Job-1.odb,loading,Increment      1: Step Time =    1.000,"PART-1-1",           175,   20.0000E-03,   200.000E-03,       2.60000,NA,NA,"",   20.0000E-03,   200.000E-03,       2.60000,   59.4216E-03
C:/Users/touze/project/Shear_centre/strip/Job-1.odb,loading,Increment      1: Step Time =    1.000,"PART-1-1",           174,   20.0000E-03,      250.E-03,       2.60000,NA,NA,"",   20.0000E-03,      250.E-03,       2.60000,   57.4054E-03
C:/Users/touze/project/Shear_centre/strip/Job-1.odb,loading,Increment      1: Step Time =    1.000,"PART-1-1",           173,   20.0000E-03,   300.000E-03,       2.60000,NA,NA,"",   20.0000E-03,   300.000E-03,       2.60000,   59.7425E-03
C:/Users/touze/project/Shear_centre/strip/Job-1.odb,loading,Increment      1: Step Time =    1.000,"PART-1-1",           172,   20.0000E-03,   350.000E-03,       2.60000,NA,NA,"",   20.0000E-03,   350.000E-03,       2.60000,   65.8911E-03
C:/Users/touze/project/Shear_centre/strip/Job-1.odb,loading,Increment      1: Step Time =    1.000,"PART-1-1",           171,   20.0000E-03,   400.000E-03,       2.60000,NA,NA,"",   20.0000E-03,   400.000E-03,       2.60000,   73.3076E-03
C:/Users/touze/project/Shear_centre/strip/Job-1.odb,loading,Increment      1: Step Time =    1.000,"PART-1-1",           170,   20.0000E-03,   450.000E-03,       2.60000,NA,NA,"",   20.0000E-03,   450.000E-03,       2.60000,   76.2894E-03
C:/Users/touze/project/Shear_centre/strip/Job-1.odb,loading,Increment      1: Step Time =    1.000,"PART-1-1",           169,   20.0000E-03,      500.E-03,       2.60000,NA,NA,"",   20.0000E-03,      500.E-03,       2.60000,   75.7767E-03
C:/Users/touze/project/Shear_centre/strip/Job-1.odb,loading,Increment      1: Step Time =    1.000,"PART-1-1",          1469,  -20.0000E-03,  -450.000E-03,       2.60000,NA,NA,"",  -20.0000E-03,  -450.000E-03,       2.60000,   76.2893E-03
C:/Users/touze/project/Shear_centre/strip/Job-1.odb,loading,Increment      1: Step Time =    1.000,"PART-1-1",          1468,  -20.0000E-03,  -400.000E-03,       2.60000,NA,NA,"",  -20.0000E-03,  -400.000E-03,       2.60000,   73.3076E-03
C:/Users/touze/project/Shear_centre/strip/Job-1.odb,loading,Increment      1: Step Time =    1.000,"PART-1-1",          1467,  -20.0000E-03,  -350.000E-03,       2.60000,NA,NA,"",  -20.0000E-03,  -350.000E-03,       2.60000,   65.8911E-03
C:/Users/touze/project/Shear_centre/strip/Job-1.odb,loading,Increment      1: Step Time =    1.000,"PART-1-1",          1466,  -20.0000E-03,  -300.000E-03,       2.60000,NA,NA,"",  -20.0000E-03,  -300.000E-03,       2.60000,   59.7424E-03
C:/Users/touze/project/Shear_centre/strip/Job-1.odb,loading,Increment      1: Step Time =    1.000,"PART-1-1",          1465,  -20.0000E-03,     -250.E-03,       2.60000,NA,NA,"",  -20.0000E-03,     -250.E-03,       2.60000,   57.4054E-03
C:/Users/touze/project/Shear_centre/strip/Job-1.odb,loading,Increment      1: Step Time =    1.000,"PART-1-1",          1464,  -20.0000E-03,  -200.000E-03,       2.60000,NA,NA,"",  -20.0000E-03,  -200.000E-03,       2.60000,   59.4216E-03
C:/Users/touze/project/Shear_centre/strip/Job-1.odb,loading,Increment      1: Step Time =    1.000,"PART-1-1",          1463,  -20.0000E-03,  -150.000E-03,       2.60000,NA,NA,"",  -20.0000E-03,  -150.000E-03,       2.60000,   65.1306E-03
C:/Users/touze/project/Shear_centre/strip/Job-1.odb,loading,Increment      1: Step Time =    1.000,"PART-1-1",          1462,  -20.0000E-03,  -100.000E-03,       2.60000,NA,NA,"",  -20.0000E-03,  -100.000E-03,       2.60000,   72.3806E-03
C:/Users/touze/project/Shear_centre/strip/Job-1.odb,loading,Increment      1: Step Time =    1.000,"PART-1-1",          1461,  -20.0000E-03,  -50.0000E-03,       2.60000,NA,NA,"",  -20.0000E-03,  -50.0000E-03,       2.60000,   78.3650E-03
C:/Users/touze/project/Shear_centre/strip/Job-1.odb,loading,Increment      1: Step Time =    1.000,"PART-1-1",          1460,  -20.0000E-03,            0.,       2.60000,NA,NA,"",  -20.0000E-03,            0.,       2.60000,   80.6818E-03
C:/Users/touze/project/Shear_centre/strip/Job-1.odb,loading,Increment      1: Step Time =    1.000,"PART-1-1",          1459,  -20.0000E-03,   50.0000E-03,       2.60000,NA,NA,"",  -20.0000E-03,   50.0000E-03,       2.60000,   78.3650E-03
C:/Users/touze/project/Shear_centre/strip/Job-1.odb,loading,Increment      1: Step Time =    1.000,"PART-1-1",          1458,  -20.0000E-03,   100.000E-03,       2.60000,NA,NA,"",  -20.0000E-03,   100.000E-03,       2.60000,   72.3806E-03
C:/Users/touze/project/Shear_centre/strip/Job-1.odb,loading,Increment      1: Step Time =    1.000,"PART-1-1",          1457,  -20.0000E-03,   150.000E-03,       2.60000,NA,NA,"",  -20.0000E-03,   150.000E-03,       2.60000,   65.1306E-03
C:/Users/touze/project/Shear_centre/strip/Job-1.odb,loading,Increment      1: Step Time =    1.000,"PART-1-1",          1456,  -20.0000E-03,   200.000E-03,       2.60000,NA,NA,"",  -20.0000E-03,   200.000E-03,       2.60000,   59.4216E-03
C:/Users/touze/project/Shear_centre/strip/Job-1.odb,loading,Increment      1: Step Time =    1.000,"PART-1-1",          1455,  -20.0000E-03,      250.E-03,       2.60000,NA,NA,"",  -20.0000E-03,      250.E-03,       2.60000,   57.4054E-03
C:/Users/touze/project/Shear_centre/strip/Job-1.odb,loading,Increment      1: Step Time =    1.000,"PART-1-1",          1454,  -20.0000E-03,   300.000E-03,       2.60000,NA,NA,"",  -20.0000E-03,   300.000E-03,       2.60000,   59.7425E-03
C:/Users/touze/project/Shear_centre/strip/Job-1.odb,loading,Increment      1: Step Time =    1.000,"PART-1-1",          1453,  -20.0000E-03,   350.000E-03,       2.60000,NA,NA,"",  -20.0000E-03,   350.000E-03,       2.60000,   65.8911E-03
C:/Users/touze/project/Shear_centre/strip/Job-1.odb,loading,Increment      1: Step Time =    1.000,"PART-1-1",          1452,  -20.0000E-03,   400.000E-03,       2.60000,NA,NA,"",  -20.0000E-03,   400.000E-03,       2.60000,   73.3076E-03
C:/Users/touze/project/Shear_centre/strip/Job-1.odb,loading,Increment      1: Step Time =    1.000,"PART-1-1",          1451,  -20.0000E-03,   450.000E-03,       2.60000,NA,NA,"",  -20.0000E-03,   450.000E-03,       2.60000,   76.2894E-03
C:/Users/touze/project/Shear_centre/strip/Job-1.odb,loading,Increment      1: Step Time =    1.000,"PART-1-1",          1450,  -20.0000E-03,      500.E-03,       2.60000,NA,NA,"",  -20.0000E-03,      500.E-03,       2.60000,   75.7767E-03
C:/Users/touze/project/Shear_centre/strip/Job-1.odb,loading,Increment      1: Step Time =    1.000,"PART-1-1",          1470,  -20.0000E-03,     -500.E-03,       2.60000,NA,NA,"",  -20.0000E-03,     -500.E-03,       2.60000,   75.7767E-03
C:/Users/touze/project/Shear_centre/strip/Job-1.odb,loading,Increment      1: Step Time =    1.000,"PART-1-1",          1430,  -20.0000E-03,   450.000E-03,       2.65000,NA,NA,"",  -20.0000E-03,   450.000E-03,       2.65000,   66.9367E-03
C:/Users/touze/project/Shear_centre/strip/Job-1.odb,loading,Increment      1: Step Time =    1.000,"PART-1-1",          1431,  -20.0000E-03,   400.000E-03,       2.65000,NA,NA,"",  -20.0000E-03,   400.000E-03,       2.65000,   66.5537E-03
C:/Users/touze/project/Shear_centre/strip/Job-1.odb,loading,Increment      1: Step Time =    1.000,"PART-1-1",          1432,  -20.0000E-03,   350.000E-03,       2.65000,NA,NA,"",  -20.0000E-03,   350.000E-03,       2.65000,   61.8438E-03
C:/Users/touze/project/Shear_centre/strip/Job-1.odb,loading,Increment      1: Step Time =    1.000,"PART-1-1",          1433,  -20.0000E-03,   300.000E-03,       2.65000,NA,NA,"",  -20.0000E-03,   300.000E-03,       2.65000,   58.2305E-03
C:/Users/touze/project/Shear_centre/strip/Job-1.odb,loading,Increment      1: Step Time =    1.000,"PART-1-1",          1434,  -20.0000E-03,      250.E-03,       2.65000,NA,NA,"",  -20.0000E-03,      250.E-03,       2.65000,   56.8800E-03
C:/Users/touze/project/Shear_centre/strip/Job-1.odb,loading,Increment      1: Step Time =    1.000,"PART-1-1",          1435,  -20.0000E-03,   200.000E-03,       2.65000,NA,NA,"",  -20.0000E-03,   200.000E-03,       2.65000,   57.8185E-03
C:/Users/touze/project/Shear_centre/strip/Job-1.odb,loading,Increment      1: Step Time =    1.000,"PART-1-1",          1436,  -20.0000E-03,   150.000E-03,       2.65000,NA,NA,"",  -20.0000E-03,   150.000E-03,       2.65000,   60.9212E-03
C:/Users/touze/project/Shear_centre/strip/Job-1.odb,loading,Increment      1: Step Time =    1.000,"PART-1-1",          1437,  -20.0000E-03,   100.000E-03,       2.65000,NA,NA,"",  -20.0000E-03,   100.000E-03,       2.65000,   65.1915E-03
C:/Users/touze/project/Shear_centre/strip/Job-1.odb,loading,Increment      1: Step Time =    1.000,"PART-1-1",          1438,  -20.0000E-03,   50.0000E-03,       2.65000,NA,NA,"",  -20.0000E-03,   50.0000E-03,       2.65000,   68.9241E-03
C:/Users/touze/project/Shear_centre/strip/Job-1.odb,loading,Increment      1: Step Time =    1.000,"PART-1-1",          1439,  -20.0000E-03,            0.,       2.65000,NA,NA,"",  -20.0000E-03,            0.,       2.65000,   70.4237E-03
C:/Users/touze/project/Shear_centre/strip/Job-1.odb,loading,Increment      1: Step Time =    1.000,"PART-1-1",          1440,  -20.0000E-03,  -50.0000E-03,       2.65000,NA,NA,"",  -20.0000E-03,  -50.0000E-03,       2.65000,   68.9241E-03
C:/Users/touze/project/Shear_centre/strip/Job-1.odb,loading,Increment      1: Step Time =    1.000,"PART-1-1",          1441,  -20.0000E-03,  -100.000E-03,       2.65000,NA,NA,"",  -20.0000E-03,  -100.000E-03,       2.65000,   65.1915E-03
C:/Users/touze/project/Shear_centre/strip/Job-1.odb,loading,Increment      1: Step Time =    1.000,"PART-1-1",          1442,  -20.0000E-03,  -150.000E-03,       2.65000,NA,NA,"",  -20.0000E-03,  -150.000E-03,       2.65000,   60.9212E-03
C:/Users/touze/project/Shear_centre/strip/Job-1.odb,loading,Increment      1: Step Time =    1.000,"PART-1-1",          1443,  -20.0000E-03,  -200.000E-03,       2.65000,NA,NA,"",  -20.0000E-03,  -200.000E-03,       2.65000,   57.8185E-03
C:/Users/touze/project/Shear_centre/strip/Job-1.odb,loading,Increment      1: Step Time =    1.000,"PART-1-1",          1444,  -20.0000E-03,     -250.E-03,       2.65000,NA,NA,"",  -20.0000E-03,     -250.E-03,       2.65000,   56.8800E-03
C:/Users/touze/project/Shear_centre/strip/Job-1.odb,loading,Increment      1: Step Time =    1.000,"PART-1-1",          1445,  -20.0000E-03,  -300.000E-03,       2.65000,NA,NA,"",  -20.0000E-03,  -300.000E-03,       2.65000,   58.2305E-03
C:/Users/touze/project/Shear_centre/strip/Job-1.odb,loading,Increment      1: Step Time =    1.000,"PART-1-1",          1446,  -20.0000E-03,  -350.000E-03,       2.65000,NA,NA,"",  -20.0000E-03,  -350.000E-03,       2.65000,   61.8438E-03
C:/Users/touze/project/Shear_centre/strip/Job-1.odb,loading,Increment      1: Step Time =    1.000,"PART-1-1",          1447,  -20.0000E-03,  -400.000E-03,       2.65000,NA,NA,"",  -20.0000E-03,  -400.000E-03,       2.65000,   66.5537E-03
C:/Users/touze/project/Shear_centre/strip/Job-1.odb,loading,Increment      1: Step Time =    1.000,"PART-1-1",          1448,  -20.0000E-03,  -450.000E-03,       2.65000,NA,NA,"",  -20.0000E-03,  -450.000E-03,       2.65000,   66.9367E-03
C:/Users/touze/project/Shear_centre/strip/Job-1.odb,loading,Increment      1: Step Time =    1.000,"PART-1-1",          1449,  -20.0000E-03,     -500.E-03,       2.65000,NA,NA,"",  -20.0000E-03,     -500.E-03,       2.65000,   64.9995E-03
C:/Users/touze/project/Shear_centre/strip/Job-1.odb,loading,Increment      1: Step Time =    1.000,"PART-1-1",           148,   20.0000E-03,      500.E-03,       2.65000,NA,NA,"",   20.0000E-03,      500.E-03,       2.65000,   64.9995E-03
C:/Users/touze/project/Shear_centre/strip/Job-1.odb,loading,Increment      1: Step Time =    1.000,"PART-1-1",           149,   20.0000E-03,   450.000E-03,       2.65000,NA,NA,"",   20.0000E-03,   450.000E-03,       2.65000,   66.9367E-03
C:/Users/touze/project/Shear_centre/strip/Job-1.odb,loading,Increment      1: Step Time =    1.000,"PART-1-1",           150,   20.0000E-03,   400.000E-03,       2.65000,NA,NA,"",   20.0000E-03,   400.000E-03,       2.65000,   66.5537E-03
C:/Users/touze/project/Shear_centre/strip/Job-1.odb,loading,Increment      1: Step Time =    1.000,"PART-1-1",           151,   20.0000E-03,   350.000E-03,       2.65000,NA,NA,"",   20.0000E-03,   350.000E-03,       2.65000,   61.8438E-03
C:/Users/touze/project/Shear_centre/strip/Job-1.odb,loading,Increment      1: Step Time =    1.000,"PART-1-1",           152,   20.0000E-03,   300.000E-03,       2.65000,NA,NA,"",   20.0000E-03,   300.000E-03,       2.65000,   58.2305E-03
C:/Users/touze/project/Shear_centre/strip/Job-1.odb,loading,Increment      1: Step Time =    1.000,"PART-1-1",           153,   20.0000E-03,      250.E-03,       2.65000,NA,NA,"",   20.0000E-03,      250.E-03,       2.65000,   56.8800E-03
C:/Users/touze/project/Shear_centre/strip/Job-1.odb,loading,Increment      1: Step Time =    1.000,"PART-1-1",           154,   20.0000E-03,   200.000E-03,       2.65000,NA,NA,"",   20.0000E-03,   200.000E-03,       2.65000,   57.8185E-03
C:/Users/touze/project/Shear_centre/strip/Job-1.odb,loading,Increment      1: Step Time =    1.000,"PART-1-1",           155,   20.0000E-03,   150.000E-03,       2.65000,NA,NA,"",   20.0000E-03,   150.000E-03,       2.65000,   60.9212E-03
C:/Users/touze/project/Shear_centre/strip/Job-1.odb,loading,Increment      1: Step Time =    1.000,"PART-1-1",           156,   20.0000E-03,   100.000E-03,       2.65000,NA,NA,"",   20.0000E-03,   100.000E-03,       2.65000,   65.1915E-03
C:/Users/touze/project/Shear_centre/strip/Job-1.odb,loading,Increment      1: Step Time =    1.000,"PART-1-1",           157,   20.0000E-03,   50.0000E-03,       2.65000,NA,NA,"",   20.0000E-03,   50.0000E-03,       2.65000,   68.9241E-03
C:/Users/touze/project/Shear_centre/strip/Job-1.odb,loading,Increment      1: Step Time =    1.000,"PART-1-1",           158,   20.0000E-03,            0.,       2.65000,NA,NA,"",   20.0000E-03,            0.,       2.65000,   70.4237E-03
C:/Users/touze/project/Shear_centre/strip/Job-1.odb,loading,Increment      1: Step Time =    1.000,"PART-1-1",           159,   20.0000E-03,  -50.0000E-03,       2.65000,NA,NA,"",   20.0000E-03,  -50.0000E-03,       2.65000,   68.9241E-03
C:/Users/touze/project/Shear_centre/strip/Job-1.odb,loading,Increment      1: Step Time =    1.000,"PART-1-1",           160,   20.0000E-03,  -100.000E-03,       2.65000,NA,NA,"",   20.0000E-03,  -100.000E-03,       2.65000,   65.1915E-03
C:/Users/touze/project/Shear_centre/strip/Job-1.odb,loading,Increment      1: Step Time =    1.000,"PART-1-1",           161,   20.0000E-03,  -150.000E-03,       2.65000,NA,NA,"",   20.0000E-03,  -150.000E-03,       2.65000,   60.9212E-03
C:/Users/touze/project/Shear_centre/strip/Job-1.odb,loading,Increment      1: Step Time =    1.000,"PART-1-1",           162,   20.0000E-03,  -200.000E-03,       2.65000,NA,NA,"",   20.0000E-03,  -200.000E-03,       2.65000,   57.8185E-03
C:/Users/touze/project/Shear_centre/strip/Job-1.odb,loading,Increment      1: Step Time =    1.000,"PART-1-1",           163,   20.0000E-03,     -250.E-03,       2.65000,NA,NA,"",   20.0000E-03,     -250.E-03,       2.65000,   56.8800E-03
C:/Users/touze/project/Shear_centre/strip/Job-1.odb,loading,Increment      1: Step Time =    1.000,"PART-1-1",           164,   20.0000E-03,  -300.000E-03,       2.65000,NA,NA,"",   20.0000E-03,  -300.000E-03,       2.65000,   58.2305E-03
C:/Users/touze/project/Shear_centre/strip/Job-1.odb,loading,Increment      1: Step Time =    1.000,"PART-1-1",           165,   20.0000E-03,  -350.000E-03,       2.65000,NA,NA,"",   20.0000E-03,  -350.000E-03,       2.65000,   61.8438E-03
C:/Users/touze/project/Shear_centre/strip/Job-1.odb,loading,Increment      1: Step Time =    1.000,"PART-1-1",           166,   20.0000E-03,  -400.000E-03,       2.65000,NA,NA,"",   20.0000E-03,  -400.000E-03,       2.65000,   66.5537E-03
C:/Users/touze/project/Shear_centre/strip/Job-1.odb,loading,Increment      1: Step Time =    1.000,"PART-1-1",           167,   20.0000E-03,  -450.000E-03,       2.65000,NA,NA,"",   20.0000E-03,  -450.000E-03,       2.65000,   66.9367E-03
C:/Users/touze/project/Shear_centre/strip/Job-1.odb,loading,Increment      1: Step Time =    1.000,"PART-1-1",          1429,  -20.0000E-03,      500.E-03,       2.65000,NA,NA,"",  -20.0000E-03,      500.E-03,       2.65000,   64.9995E-03
C:/Users/touze/project/Shear_centre/strip/Job-1.odb,loading,Increment      1: Step Time =    1.000,"PART-1-1",           168,   20.0000E-03,     -500.E-03,       2.65000,NA,NA,"",   20.0000E-03,     -500.E-03,       2.65000,   64.9995E-03
C:/Users/touze/project/Shear_centre/strip/Job-1.odb,loading,Increment      1: Step Time =    1.000,"PART-1-1",           128,   20.0000E-03,   450.000E-03,       2.70000,NA,NA,"",   20.0000E-03,   450.000E-03,       2.70000,   57.1878E-03
C:/Users/touze/project/Shear_centre/strip/Job-1.odb,loading,Increment      1: Step Time =    1.000,"PART-1-1",           129,   20.0000E-03,   400.000E-03,       2.70000,NA,NA,"",   20.0000E-03,   400.000E-03,       2.70000,   59.4605E-03
C:/Users/touze/project/Shear_centre/strip/Job-1.odb,loading,Increment      1: Step Time =    1.000,"PART-1-1",           130,   20.0000E-03,   350.000E-03,       2.70000,NA,NA,"",   20.0000E-03,   350.000E-03,       2.70000,   57.7309E-03
C:/Users/touze/project/Shear_centre/strip/Job-1.odb,loading,Increment      1: Step Time =    1.000,"PART-1-1",           131,   20.0000E-03,   300.000E-03,       2.70000,NA,NA,"",   20.0000E-03,   300.000E-03,       2.70000,   56.8351E-03
C:/Users/touze/project/Shear_centre/strip/Job-1.odb,loading,Increment      1: Step Time =    1.000,"PART-1-1",           132,   20.0000E-03,      250.E-03,       2.70000,NA,NA,"",   20.0000E-03,      250.E-03,       2.70000,   56.5326E-03
C:/Users/touze/project/Shear_centre/strip/Job-1.odb,loading,Increment      1: Step Time =    1.000,"PART-1-1",           133,   20.0000E-03,   200.000E-03,       2.70000,NA,NA,"",   20.0000E-03,   200.000E-03,       2.70000,   56.5059E-03
C:/Users/touze/project/Shear_centre/strip/Job-1.odb,loading,Increment      1: Step Time =    1.000,"PART-1-1",           134,   20.0000E-03,   150.000E-03,       2.70000,NA,NA,"",   20.0000E-03,   150.000E-03,       2.70000,   57.0206E-03
C:/Users/touze/project/Shear_centre/strip/Job-1.odb,loading,Increment      1: Step Time =    1.000,"PART-1-1",           135,   20.0000E-03,   100.000E-03,       2.70000,NA,NA,"",   20.0000E-03,   100.000E-03,       2.70000,   58.0756E-03
C:/Users/touze/project/Shear_centre/strip/Job-1.odb,loading,Increment      1: Step Time =    1.000,"PART-1-1",           136,   20.0000E-03,   50.0000E-03,       2.70000,NA,NA,"",   20.0000E-03,   50.0000E-03,       2.70000,   59.2156E-03
C:/Users/touze/project/Shear_centre/strip/Job-1.odb,loading,Increment      1: Step Time =    1.000,"PART-1-1",           137,   20.0000E-03,            0.,       2.70000,NA,NA,"",   20.0000E-03,            0.,       2.70000,   59.7532E-03
C:/Users/touze/project/Shear_centre/strip/Job-1.odb,loading,Increment      1: Step Time =    1.000,"PART-1-1",           138,   20.0000E-03,  -50.0000E-03,       2.70000,NA,NA,"",   20.0000E-03,  -50.0000E-03,       2.70000,   59.2156E-03
C:/Users/touze/project/Shear_centre/strip/Job-1.odb,loading,Increment      1: Step Time =    1.000,"PART-1-1",           139,   20.0000E-03,  -100.000E-03,       2.70000,NA,NA,"",   20.0000E-03,  -100.000E-03,       2.70000,   58.0756E-03
C:/Users/touze/project/Shear_centre/strip/Job-1.odb,loading,Increment      1: Step Time =    1.000,"PART-1-1",           140,   20.0000E-03,  -150.000E-03,       2.70000,NA,NA,"",   20.0000E-03,  -150.000E-03,       2.70000,   57.0206E-03
C:/Users/touze/project/Shear_centre/strip/Job-1.odb,loading,Increment      1: Step Time =    1.000,"PART-1-1",           141,   20.0000E-03,  -200.000E-03,       2.70000,NA,NA,"",   20.0000E-03,  -200.000E-03,       2.70000,   56.5059E-03
C:/Users/touze/project/Shear_centre/strip/Job-1.odb,loading,Increment      1: Step Time =    1.000,"PART-1-1",           142,   20.0000E-03,     -250.E-03,       2.70000,NA,NA,"",   20.0000E-03,     -250.E-03,       2.70000,   56.5326E-03
C:/Users/touze/project/Shear_centre/strip/Job-1.odb,loading,Increment      1: Step Time =    1.000,"PART-1-1",           143,   20.0000E-03,  -300.000E-03,       2.70000,NA,NA,"",   20.0000E-03,  -300.000E-03,       2.70000,   56.8350E-03
C:/Users/touze/project/Shear_centre/strip/Job-1.odb,loading,Increment      1: Step Time =    1.000,"PART-1-1",           144,   20.0000E-03,  -350.000E-03,       2.70000,NA,NA,"",   20.0000E-03,  -350.000E-03,       2.70000,   57.7309E-03
C:/Users/touze/project/Shear_centre/strip/Job-1.odb,loading,Increment      1: Step Time =    1.000,"PART-1-1",           145,   20.0000E-03,  -400.000E-03,       2.70000,NA,NA,"",   20.0000E-03,  -400.000E-03,       2.70000,   59.4605E-03
C:/Users/touze/project/Shear_centre/strip/Job-1.odb,loading,Increment      1: Step Time =    1.000,"PART-1-1",           146,   20.0000E-03,  -450.000E-03,       2.70000,NA,NA,"",   20.0000E-03,  -450.000E-03,       2.70000,   57.1878E-03
C:/Users/touze/project/Shear_centre/strip/Job-1.odb,loading,Increment      1: Step Time =    1.000,"PART-1-1",           147,   20.0000E-03,     -500.E-03,       2.70000,NA,NA,"",   20.0000E-03,     -500.E-03,       2.70000,   53.8676E-03
C:/Users/touze/project/Shear_centre/strip/Job-1.odb,loading,Increment      1: Step Time =    1.000,"PART-1-1",          1408,  -20.0000E-03,      500.E-03,       2.70000,NA,NA,"",  -20.0000E-03,      500.E-03,       2.70000,   53.8676E-03
C:/Users/touze/project/Shear_centre/strip/Job-1.odb,loading,Increment      1: Step Time =    1.000,"PART-1-1",          1409,  -20.0000E-03,   450.000E-03,       2.70000,NA,NA,"",  -20.0000E-03,   450.000E-03,       2.70000,   57.1878E-03
C:/Users/touze/project/Shear_centre/strip/Job-1.odb,loading,Increment      1: Step Time =    1.000,"PART-1-1",          1410,  -20.0000E-03,   400.000E-03,       2.70000,NA,NA,"",  -20.0000E-03,   400.000E-03,       2.70000,   59.4605E-03
C:/Users/touze/project/Shear_centre/strip/Job-1.odb,loading,Increment      1: Step Time =    1.000,"PART-1-1",          1411,  -20.0000E-03,   350.000E-03,       2.70000,NA,NA,"",  -20.0000E-03,   350.000E-03,       2.70000,   57.7309E-03
C:/Users/touze/project/Shear_centre/strip/Job-1.odb,loading,Increment      1: Step Time =    1.000,"PART-1-1",          1412,  -20.0000E-03,   300.000E-03,       2.70000,NA,NA,"",  -20.0000E-03,   300.000E-03,       2.70000,   56.8351E-03
C:/Users/touze/project/Shear_centre/strip/Job-1.odb,loading,Increment      1: Step Time =    1.000,"PART-1-1",          1413,  -20.0000E-03,      250.E-03,       2.70000,NA,NA,"",  -20.0000E-03,      250.E-03,       2.70000,   56.5326E-03
C:/Users/touze/project/Shear_centre/strip/Job-1.odb,loading,Increment      1: Step Time =    1.000,"PART-1-1",          1414,  -20.0000E-03,   200.000E-03,       2.70000,NA,NA,"",  -20.0000E-03,   200.000E-03,       2.70000,   56.5059E-03
C:/Users/touze/project/Shear_centre/strip/Job-1.odb,loading,Increment      1: Step Time =    1.000,"PART-1-1",          1415,  -20.0000E-03,   150.000E-03,       2.70000,NA,NA,"",  -20.0000E-03,   150.000E-03,       2.70000,   57.0206E-03
C:/Users/touze/project/Shear_centre/strip/Job-1.odb,loading,Increment      1: Step Time =    1.000,"PART-1-1",          1416,  -20.0000E-03,   100.000E-03,       2.70000,NA,NA,"",  -20.0000E-03,   100.000E-03,       2.70000,   58.0756E-03
C:/Users/touze/project/Shear_centre/strip/Job-1.odb,loading,Increment      1: Step Time =    1.000,"PART-1-1",          1417,  -20.0000E-03,   50.0000E-03,       2.70000,NA,NA,"",  -20.0000E-03,   50.0000E-03,       2.70000,   59.2156E-03
C:/Users/touze/project/Shear_centre/strip/Job-1.odb,loading,Increment      1: Step Time =    1.000,"PART-1-1",          1418,  -20.0000E-03,            0.,       2.70000,NA,NA,"",  -20.0000E-03,            0.,       2.70000,   59.7532E-03
C:/Users/touze/project/Shear_centre/strip/Job-1.odb,loading,Increment      1: Step Time =    1.000,"PART-1-1",          1419,  -20.0000E-03,  -50.0000E-03,       2.70000,NA,NA,"",  -20.0000E-03,  -50.0000E-03,       2.70000,   59.2156E-03
C:/Users/touze/project/Shear_centre/strip/Job-1.odb,loading,Increment      1: Step Time =    1.000,"PART-1-1",          1420,  -20.0000E-03,  -100.000E-03,       2.70000,NA,NA,"",  -20.0000E-03,  -100.000E-03,       2.70000,   58.0756E-03
C:/Users/touze/project/Shear_centre/strip/Job-1.odb,loading,Increment      1: Step Time =    1.000,"PART-1-1",          1421,  -20.0000E-03,  -150.000E-03,       2.70000,NA,NA,"",  -20.0000E-03,  -150.000E-03,       2.70000,   57.0206E-03
C:/Users/touze/project/Shear_centre/strip/Job-1.odb,loading,Increment      1: Step Time =    1.000,"PART-1-1",          1422,  -20.0000E-03,  -200.000E-03,       2.70000,NA,NA,"",  -20.0000E-03,  -200.000E-03,       2.70000,   56.5059E-03
C:/Users/touze/project/Shear_centre/strip/Job-1.odb,loading,Increment      1: Step Time =    1.000,"PART-1-1",          1423,  -20.0000E-03,     -250.E-03,       2.70000,NA,NA,"",  -20.0000E-03,     -250.E-03,       2.70000,   56.5326E-03
C:/Users/touze/project/Shear_centre/strip/Job-1.odb,loading,Increment      1: Step Time =    1.000,"PART-1-1",          1424,  -20.0000E-03,  -300.000E-03,       2.70000,NA,NA,"",  -20.0000E-03,  -300.000E-03,       2.70000,   56.8350E-03
C:/Users/touze/project/Shear_centre/strip/Job-1.odb,loading,Increment      1: Step Time =    1.000,"PART-1-1",          1425,  -20.0000E-03,  -350.000E-03,       2.70000,NA,NA,"",  -20.0000E-03,  -350.000E-03,       2.70000,   57.7309E-03
C:/Users/touze/project/Shear_centre/strip/Job-1.odb,loading,Increment      1: Step Time =    1.000,"PART-1-1",          1426,  -20.0000E-03,  -400.000E-03,       2.70000,NA,NA,"",  -20.0000E-03,  -400.000E-03,       2.70000,   59.4605E-03
C:/Users/touze/project/Shear_centre/strip/Job-1.odb,loading,Increment      1: Step Time =    1.000,"PART-1-1",          1427,  -20.0000E-03,  -450.000E-03,       2.70000,NA,NA,"",  -20.0000E-03,  -450.000E-03,       2.70000,   57.1878E-03
C:/Users/touze/project/Shear_centre/strip/Job-1.odb,loading,Increment      1: Step Time =    1.000,"PART-1-1",          1428,  -20.0000E-03,     -500.E-03,       2.70000,NA,NA,"",  -20.0000E-03,     -500.E-03,       2.70000,   53.8676E-03
C:/Users/touze/project/Shear_centre/strip/Job-1.odb,loading,Increment      1: Step Time =    1.000,"PART-1-1",           127,   20.0000E-03,      500.E-03,       2.70000,NA,NA,"",   20.0000E-03,      500.E-03,       2.70000,   53.8676E-03
C:/Users/touze/project/Shear_centre/strip/Job-1.odb,loading,Increment      1: Step Time =    1.000,"PART-1-1",          1407,  -20.0000E-03,     -500.E-03,          2.75,NA,NA,"",  -20.0000E-03,     -500.E-03,          2.75,   43.3366E-03
C:/Users/touze/project/Shear_centre/strip/Job-1.odb,loading,Increment      1: Step Time =    1.000,"PART-1-1",          1406,  -20.0000E-03,  -450.000E-03,          2.75,NA,NA,"",  -20.0000E-03,  -450.000E-03,          2.75,   48.6378E-03
C:/Users/touze/project/Shear_centre/strip/Job-1.odb,loading,Increment      1: Step Time =    1.000,"PART-1-1",          1405,  -20.0000E-03,  -400.000E-03,          2.75,NA,NA,"",  -20.0000E-03,  -400.000E-03,          2.75,   53.8971E-03
C:/Users/touze/project/Shear_centre/strip/Job-1.odb,loading,Increment      1: Step Time =    1.000,"PART-1-1",          1404,  -20.0000E-03,  -350.000E-03,          2.75,NA,NA,"",  -20.0000E-03,  -350.000E-03,          2.75,   54.5966E-03
C:/Users/touze/project/Shear_centre/strip/Job-1.odb,loading,Increment      1: Step Time =    1.000,"PART-1-1",          1403,  -20.0000E-03,  -300.000E-03,          2.75,NA,NA,"",  -20.0000E-03,  -300.000E-03,          2.75,   55.7624E-03
C:/Users/touze/project/Shear_centre/strip/Job-1.odb,loading,Increment      1: Step Time =    1.000,"PART-1-1",          1402,  -20.0000E-03,     -250.E-03,          2.75,NA,NA,"",  -20.0000E-03,     -250.E-03,          2.75,   56.0505E-03
C:/Users/touze/project/Shear_centre/strip/Job-1.odb,loading,Increment      1: Step Time =    1.000,"PART-1-1",          1401,  -20.0000E-03,  -200.000E-03,          2.75,NA,NA,"",  -20.0000E-03,  -200.000E-03,          2.75,   55.1423E-03
C:/Users/touze/project/Shear_centre/strip/Job-1.odb,loading,Increment      1: Step Time =    1.000,"PART-1-1",          1400,  -20.0000E-03,  -150.000E-03,          2.75,NA,NA,"",  -20.0000E-03,  -150.000E-03,          2.75,   53.4803E-03
C:/Users/touze/project/Shear_centre/strip/Job-1.odb,loading,Increment      1: Step Time =    1.000,"PART-1-1",          1399,  -20.0000E-03,  -100.000E-03,          2.75,NA,NA,"",  -20.0000E-03,  -100.000E-03,          2.75,   51.7270E-03
C:/Users/touze/project/Shear_centre/strip/Job-1.odb,loading,Increment      1: Step Time =    1.000,"PART-1-1",          1398,  -20.0000E-03,  -50.0000E-03,          2.75,NA,NA,"",  -20.0000E-03,  -50.0000E-03,          2.75,   50.4923E-03
C:/Users/touze/project/Shear_centre/strip/Job-1.odb,loading,Increment      1: Step Time =    1.000,"PART-1-1",          1397,  -20.0000E-03,            0.,          2.75,NA,NA,"",  -20.0000E-03,            0.,          2.75,   50.1207E-03
C:/Users/touze/project/Shear_centre/strip/Job-1.odb,loading,Increment      1: Step Time =    1.000,"PART-1-1",          1396,  -20.0000E-03,   50.0000E-03,          2.75,NA,NA,"",  -20.0000E-03,   50.0000E-03,          2.75,   50.4923E-03
C:/Users/touze/project/Shear_centre/strip/Job-1.odb,loading,Increment      1: Step Time =    1.000,"PART-1-1",          1395,  -20.0000E-03,   100.000E-03,          2.75,NA,NA,"",  -20.0000E-03,   100.000E-03,          2.75,   51.7270E-03
C:/Users/touze/project/Shear_centre/strip/Job-1.odb,loading,Increment      1: Step Time =    1.000,"PART-1-1",          1394,  -20.0000E-03,   150.000E-03,          2.75,NA,NA,"",  -20.0000E-03,   150.000E-03,          2.75,   53.4803E-03
C:/Users/touze/project/Shear_centre/strip/Job-1.odb,loading,Increment      1: Step Time =    1.000,"PART-1-1",          1393,  -20.0000E-03,   200.000E-03,          2.75,NA,NA,"",  -20.0000E-03,   200.000E-03,          2.75,   55.1423E-03
C:/Users/touze/project/Shear_centre/strip/Job-1.odb,loading,Increment      1: Step Time =    1.000,"PART-1-1",          1392,  -20.0000E-03,      250.E-03,          2.75,NA,NA,"",  -20.0000E-03,      250.E-03,          2.75,   56.0505E-03
C:/Users/touze/project/Shear_centre/strip/Job-1.odb,loading,Increment      1: Step Time =    1.000,"PART-1-1",          1391,  -20.0000E-03,   300.000E-03,          2.75,NA,NA,"",  -20.0000E-03,   300.000E-03,          2.75,   55.7624E-03
C:/Users/touze/project/Shear_centre/strip/Job-1.odb,loading,Increment      1: Step Time =    1.000,"PART-1-1",          1390,  -20.0000E-03,   350.000E-03,          2.75,NA,NA,"",  -20.0000E-03,   350.000E-03,          2.75,   54.5966E-03
C:/Users/touze/project/Shear_centre/strip/Job-1.odb,loading,Increment      1: Step Time =    1.000,"PART-1-1",          1389,  -20.0000E-03,   400.000E-03,          2.75,NA,NA,"",  -20.0000E-03,   400.000E-03,          2.75,   53.8971E-03
C:/Users/touze/project/Shear_centre/strip/Job-1.odb,loading,Increment      1: Step Time =    1.000,"PART-1-1",          1388,  -20.0000E-03,   450.000E-03,          2.75,NA,NA,"",  -20.0000E-03,   450.000E-03,          2.75,   48.6378E-03
C:/Users/touze/project/Shear_centre/strip/Job-1.odb,loading,Increment      1: Step Time =    1.000,"PART-1-1",           126,   20.0000E-03,     -500.E-03,          2.75,NA,NA,"",   20.0000E-03,     -500.E-03,          2.75,   43.3366E-03
C:/Users/touze/project/Shear_centre/strip/Job-1.odb,loading,Increment      1: Step Time =    1.000,"PART-1-1",           125,   20.0000E-03,  -450.000E-03,          2.75,NA,NA,"",   20.0000E-03,  -450.000E-03,          2.75,   48.6378E-03
C:/Users/touze/project/Shear_centre/strip/Job-1.odb,loading,Increment      1: Step Time =    1.000,"PART-1-1",           124,   20.0000E-03,  -400.000E-03,          2.75,NA,NA,"",   20.0000E-03,  -400.000E-03,          2.75,   53.8971E-03
C:/Users/touze/project/Shear_centre/strip/Job-1.odb,loading,Increment      1: Step Time =    1.000,"PART-1-1",           123,   20.0000E-03,  -350.000E-03,          2.75,NA,NA,"",   20.0000E-03,  -350.000E-03,          2.75,   54.5966E-03
C:/Users/touze/project/Shear_centre/strip/Job-1.odb,loading,Increment      1: Step Time =    1.000,"PART-1-1",           122,   20.0000E-03,  -300.000E-03,          2.75,NA,NA,"",   20.0000E-03,  -300.000E-03,          2.75,   55.7624E-03
C:/Users/touze/project/Shear_centre/strip/Job-1.odb,loading,Increment      1: Step Time =    1.000,"PART-1-1",           121,   20.0000E-03,     -250.E-03,          2.75,NA,NA,"",   20.0000E-03,     -250.E-03,          2.75,   56.0505E-03
C:/Users/touze/project/Shear_centre/strip/Job-1.odb,loading,Increment      1: Step Time =    1.000,"PART-1-1",           120,   20.0000E-03,  -200.000E-03,          2.75,NA,NA,"",   20.0000E-03,  -200.000E-03,          2.75,   55.1423E-03
C:/Users/touze/project/Shear_centre/strip/Job-1.odb,loading,Increment      1: Step Time =    1.000,"PART-1-1",           119,   20.0000E-03,  -150.000E-03,          2.75,NA,NA,"",   20.0000E-03,  -150.000E-03,          2.75,   53.4803E-03
C:/Users/touze/project/Shear_centre/strip/Job-1.odb,loading,Increment      1: Step Time =    1.000,"PART-1-1",           118,   20.0000E-03,  -100.000E-03,          2.75,NA,NA,"",   20.0000E-03,  -100.000E-03,          2.75,   51.7270E-03
C:/Users/touze/project/Shear_centre/strip/Job-1.odb,loading,Increment      1: Step Time =    1.000,"PART-1-1",           117,   20.0000E-03,  -50.0000E-03,          2.75,NA,NA,"",   20.0000E-03,  -50.0000E-03,          2.75,   50.4923E-03
C:/Users/touze/project/Shear_centre/strip/Job-1.odb,loading,Increment      1: Step Time =    1.000,"PART-1-1",           116,   20.0000E-03,            0.,          2.75,NA,NA,"",   20.0000E-03,            0.,          2.75,   50.1207E-03
C:/Users/touze/project/Shear_centre/strip/Job-1.odb,loading,Increment      1: Step Time =    1.000,"PART-1-1",           115,   20.0000E-03,   50.0000E-03,          2.75,NA,NA,"",   20.0000E-03,   50.0000E-03,          2.75,   50.4923E-03
C:/Users/touze/project/Shear_centre/strip/Job-1.odb,loading,Increment      1: Step Time =    1.000,"PART-1-1",           114,   20.0000E-03,   100.000E-03,          2.75,NA,NA,"",   20.0000E-03,   100.000E-03,          2.75,   51.7270E-03
C:/Users/touze/project/Shear_centre/strip/Job-1.odb,loading,Increment      1: Step Time =    1.000,"PART-1-1",           113,   20.0000E-03,   150.000E-03,          2.75,NA,NA,"",   20.0000E-03,   150.000E-03,          2.75,   53.4803E-03
C:/Users/touze/project/Shear_centre/strip/Job-1.odb,loading,Increment      1: Step Time =    1.000,"PART-1-1",           112,   20.0000E-03,   200.000E-03,          2.75,NA,NA,"",   20.0000E-03,   200.000E-03,          2.75,   55.1423E-03
C:/Users/touze/project/Shear_centre/strip/Job-1.odb,loading,Increment      1: Step Time =    1.000,"PART-1-1",           111,   20.0000E-03,      250.E-03,          2.75,NA,NA,"",   20.0000E-03,      250.E-03,          2.75,   56.0505E-03
C:/Users/touze/project/Shear_centre/strip/Job-1.odb,loading,Increment      1: Step Time =    1.000,"PART-1-1",           110,   20.0000E-03,   300.000E-03,          2.75,NA,NA,"",   20.0000E-03,   300.000E-03,          2.75,   55.7624E-03
C:/Users/touze/project/Shear_centre/strip/Job-1.odb,loading,Increment      1: Step Time =    1.000,"PART-1-1",           109,   20.0000E-03,   350.000E-03,          2.75,NA,NA,"",   20.0000E-03,   350.000E-03,          2.75,   54.5966E-03
C:/Users/touze/project/Shear_centre/strip/Job-1.odb,loading,Increment      1: Step Time =    1.000,"PART-1-1",           108,   20.0000E-03,   400.000E-03,          2.75,NA,NA,"",   20.0000E-03,   400.000E-03,          2.75,   53.8971E-03
C:/Users/touze/project/Shear_centre/strip/Job-1.odb,loading,Increment      1: Step Time =    1.000,"PART-1-1",           107,   20.0000E-03,   450.000E-03,          2.75,NA,NA,"",   20.0000E-03,   450.000E-03,          2.75,   48.6378E-03
C:/Users/touze/project/Shear_centre/strip/Job-1.odb,loading,Increment      1: Step Time =    1.000,"PART-1-1",           106,   20.0000E-03,      500.E-03,          2.75,NA,NA,"",   20.0000E-03,      500.E-03,          2.75,   43.3366E-03
C:/Users/touze/project/Shear_centre/strip/Job-1.odb,loading,Increment      1: Step Time =    1.000,"PART-1-1",          1387,  -20.0000E-03,      500.E-03,          2.75,NA,NA,"",  -20.0000E-03,      500.E-03,          2.75,   43.3366E-03
C:/Users/touze/project/Shear_centre/strip/Job-1.odb,loading,Increment      1: Step Time =    1.000,"PART-1-1",            85,   20.0000E-03,      500.E-03,       2.80000,NA,NA,"",   20.0000E-03,      500.E-03,       2.80000,   31.9679E-03
C:/Users/touze/project/Shear_centre/strip/Job-1.odb,loading,Increment      1: Step Time =    1.000,"PART-1-1",            87,   20.0000E-03,   400.000E-03,       2.80000,NA,NA,"",   20.0000E-03,   400.000E-03,       2.80000,   47.5708E-03
C:/Users/touze/project/Shear_centre/strip/Job-1.odb,loading,Increment      1: Step Time =    1.000,"PART-1-1",            88,   20.0000E-03,   350.000E-03,       2.80000,NA,NA,"",   20.0000E-03,   350.000E-03,       2.80000,   51.3234E-03
C:/Users/touze/project/Shear_centre/strip/Job-1.odb,loading,Increment      1: Step Time =    1.000,"PART-1-1",            89,   20.0000E-03,   300.000E-03,       2.80000,NA,NA,"",   20.0000E-03,   300.000E-03,       2.80000,   54.9346E-03
C:/Users/touze/project/Shear_centre/strip/Job-1.odb,loading,Increment      1: Step Time =    1.000,"PART-1-1",            90,   20.0000E-03,      250.E-03,       2.80000,NA,NA,"",   20.0000E-03,      250.E-03,       2.80000,   56.0554E-03
C:/Users/touze/project/Shear_centre/strip/Job-1.odb,loading,Increment      1: Step Time =    1.000,"PART-1-1",            91,   20.0000E-03,   200.000E-03,       2.80000,NA,NA,"",   20.0000E-03,   200.000E-03,       2.80000,   54.4868E-03
C:/Users/touze/project/Shear_centre/strip/Job-1.odb,loading,Increment      1: Step Time =    1.000,"PART-1-1",            92,   20.0000E-03,   150.000E-03,       2.80000,NA,NA,"",   20.0000E-03,   150.000E-03,       2.80000,   50.6248E-03
C:/Users/touze/project/Shear_centre/strip/Job-1.odb,loading,Increment      1: Step Time =    1.000,"PART-1-1",            93,   20.0000E-03,   100.000E-03,       2.80000,NA,NA,"",   20.0000E-03,   100.000E-03,       2.80000,   45.4978E-03
C:/Users/touze/project/Shear_centre/strip/Job-1.odb,loading,Increment      1: Step Time =    1.000,"PART-1-1",            94,   20.0000E-03,   50.0000E-03,       2.80000,NA,NA,"",   20.0000E-03,   50.0000E-03,       2.80000,   40.8677E-03
C:/Users/touze/project/Shear_centre/strip/Job-1.odb,loading,Increment      1: Step Time =    1.000,"PART-1-1",            95,   20.0000E-03,            0.,       2.80000,NA,NA,"",   20.0000E-03,            0.,       2.80000,   39.0215E-03
C:/Users/touze/project/Shear_centre/strip/Job-1.odb,loading,Increment      1: Step Time =    1.000,"PART-1-1",            96,   20.0000E-03,  -50.0000E-03,       2.80000,NA,NA,"",   20.0000E-03,  -50.0000E-03,       2.80000,   40.8677E-03
C:/Users/touze/project/Shear_centre/strip/Job-1.odb,loading,Increment      1: Step Time =    1.000,"PART-1-1",            97,   20.0000E-03,  -100.000E-03,       2.80000,NA,NA,"",   20.0000E-03,  -100.000E-03,       2.80000,   45.4978E-03
C:/Users/touze/project/Shear_centre/strip/Job-1.odb,loading,Increment      1: Step Time =    1.000,"PART-1-1",            98,   20.0000E-03,  -150.000E-03,       2.80000,NA,NA,"",   20.0000E-03,  -150.000E-03,       2.80000,   50.6248E-03
C:/Users/touze/project/Shear_centre/strip/Job-1.odb,loading,Increment      1: Step Time =    1.000,"PART-1-1",            99,   20.0000E-03,  -200.000E-03,       2.80000,NA,NA,"",   20.0000E-03,  -200.000E-03,       2.80000,   54.4868E-03
C:/Users/touze/project/Shear_centre/strip/Job-1.odb,loading,Increment      1: Step Time =    1.000,"PART-1-1",           100,   20.0000E-03,     -250.E-03,       2.80000,NA,NA,"",   20.0000E-03,     -250.E-03,       2.80000,   56.0554E-03
C:/Users/touze/project/Shear_centre/strip/Job-1.odb,loading,Increment      1: Step Time =    1.000,"PART-1-1",           101,   20.0000E-03,  -300.000E-03,       2.80000,NA,NA,"",   20.0000E-03,  -300.000E-03,       2.80000,   54.9346E-03
C:/Users/touze/project/Shear_centre/strip/Job-1.odb,loading,Increment      1: Step Time =    1.000,"PART-1-1",           102,   20.0000E-03,  -350.000E-03,       2.80000,NA,NA,"",   20.0000E-03,  -350.000E-03,       2.80000,   51.3234E-03
C:/Users/touze/project/Shear_centre/strip/Job-1.odb,loading,Increment      1: Step Time =    1.000,"PART-1-1",           103,   20.0000E-03,  -400.000E-03,       2.80000,NA,NA,"",   20.0000E-03,  -400.000E-03,       2.80000,   47.5707E-03
C:/Users/touze/project/Shear_centre/strip/Job-1.odb,loading,Increment      1: Step Time =    1.000,"PART-1-1",           104,   20.0000E-03,  -450.000E-03,       2.80000,NA,NA,"",   20.0000E-03,  -450.000E-03,       2.80000,   39.1134E-03
C:/Users/touze/project/Shear_centre/strip/Job-1.odb,loading,Increment      1: Step Time =    1.000,"PART-1-1",           105,   20.0000E-03,     -500.E-03,       2.80000,NA,NA,"",   20.0000E-03,     -500.E-03,       2.80000,   31.9679E-03
C:/Users/touze/project/Shear_centre/strip/Job-1.odb,loading,Increment      1: Step Time =    1.000,"PART-1-1",          1366,  -20.0000E-03,      500.E-03,       2.80000,NA,NA,"",  -20.0000E-03,      500.E-03,       2.80000,   31.9679E-03
C:/Users/touze/project/Shear_centre/strip/Job-1.odb,loading,Increment      1: Step Time =    1.000,"PART-1-1",          1367,  -20.0000E-03,   450.000E-03,       2.80000,NA,NA,"",  -20.0000E-03,   450.000E-03,       2.80000,   39.1134E-03
C:/Users/touze/project/Shear_centre/strip/Job-1.odb,loading,Increment      1: Step Time =    1.000,"PART-1-1",          1368,  -20.0000E-03,   400.000E-03,       2.80000,NA,NA,"",  -20.0000E-03,   400.000E-03,       2.80000,   47.5708E-03
C:/Users/touze/project/Shear_centre/strip/Job-1.odb,loading,Increment      1: Step Time =    1.000,"PART-1-1",          1369,  -20.0000E-03,   350.000E-03,       2.80000,NA,NA,"",  -20.0000E-03,   350.000E-03,       2.80000,   51.3234E-03
C:/Users/touze/project/Shear_centre/strip/Job-1.odb,loading,Increment      1: Step Time =    1.000,"PART-1-1",          1370,  -20.0000E-03,   300.000E-03,       2.80000,NA,NA,"",  -20.0000E-03,   300.000E-03,       2.80000,   54.9346E-03
C:/Users/touze/project/Shear_centre/strip/Job-1.odb,loading,Increment      1: Step Time =    1.000,"PART-1-1",          1371,  -20.0000E-03,      250.E-03,       2.80000,NA,NA,"",  -20.0000E-03,      250.E-03,       2.80000,   56.0554E-03
C:/Users/touze/project/Shear_centre/strip/Job-1.odb,loading,Increment      1: Step Time =    1.000,"PART-1-1",          1372,  -20.0000E-03,   200.000E-03,       2.80000,NA,NA,"",  -20.0000E-03,   200.000E-03,       2.80000,   54.4868E-03
C:/Users/touze/project/Shear_centre/strip/Job-1.odb,loading,Increment      1: Step Time =    1.000,"PART-1-1",          1373,  -20.0000E-03,   150.000E-03,       2.80000,NA,NA,"",  -20.0000E-03,   150.000E-03,       2.80000,   50.6248E-03
C:/Users/touze/project/Shear_centre/strip/Job-1.odb,loading,Increment      1: Step Time =    1.000,"PART-1-1",          1374,  -20.0000E-03,   100.000E-03,       2.80000,NA,NA,"",  -20.0000E-03,   100.000E-03,       2.80000,   45.4978E-03
C:/Users/touze/project/Shear_centre/strip/Job-1.odb,loading,Increment      1: Step Time =    1.000,"PART-1-1",          1375,  -20.0000E-03,   50.0000E-03,       2.80000,NA,NA,"",  -20.0000E-03,   50.0000E-03,       2.80000,   40.8677E-03
C:/Users/touze/project/Shear_centre/strip/Job-1.odb,loading,Increment      1: Step Time =    1.000,"PART-1-1",          1376,  -20.0000E-03,            0.,       2.80000,NA,NA,"",  -20.0000E-03,            0.,       2.80000,   39.0215E-03
C:/Users/touze/project/Shear_centre/strip/Job-1.odb,loading,Increment      1: Step Time =    1.000,"PART-1-1",          1377,  -20.0000E-03,  -50.0000E-03,       2.80000,NA,NA,"",  -20.0000E-03,  -50.0000E-03,       2.80000,   40.8677E-03
C:/Users/touze/project/Shear_centre/strip/Job-1.odb,loading,Increment      1: Step Time =    1.000,"PART-1-1",          1378,  -20.0000E-03,  -100.000E-03,       2.80000,NA,NA,"",  -20.0000E-03,  -100.000E-03,       2.80000,   45.4978E-03
C:/Users/touze/project/Shear_centre/strip/Job-1.odb,loading,Increment      1: Step Time =    1.000,"PART-1-1",          1379,  -20.0000E-03,  -150.000E-03,       2.80000,NA,NA,"",  -20.0000E-03,  -150.000E-03,       2.80000,   50.6248E-03
C:/Users/touze/project/Shear_centre/strip/Job-1.odb,loading,Increment      1: Step Time =    1.000,"PART-1-1",          1380,  -20.0000E-03,  -200.000E-03,       2.80000,NA,NA,"",  -20.0000E-03,  -200.000E-03,       2.80000,   54.4868E-03
C:/Users/touze/project/Shear_centre/strip/Job-1.odb,loading,Increment      1: Step Time =    1.000,"PART-1-1",          1381,  -20.0000E-03,     -250.E-03,       2.80000,NA,NA,"",  -20.0000E-03,     -250.E-03,       2.80000,   56.0554E-03
C:/Users/touze/project/Shear_centre/strip/Job-1.odb,loading,Increment      1: Step Time =    1.000,"PART-1-1",          1382,  -20.0000E-03,  -300.000E-03,       2.80000,NA,NA,"",  -20.0000E-03,  -300.000E-03,       2.80000,   54.9346E-03
C:/Users/touze/project/Shear_centre/strip/Job-1.odb,loading,Increment      1: Step Time =    1.000,"PART-1-1",          1383,  -20.0000E-03,  -350.000E-03,       2.80000,NA,NA,"",  -20.0000E-03,  -350.000E-03,       2.80000,   51.3234E-03
C:/Users/touze/project/Shear_centre/strip/Job-1.odb,loading,Increment      1: Step Time =    1.000,"PART-1-1",          1384,  -20.0000E-03,  -400.000E-03,       2.80000,NA,NA,"",  -20.0000E-03,  -400.000E-03,       2.80000,   47.5707E-03
C:/Users/touze/project/Shear_centre/strip/Job-1.odb,loading,Increment      1: Step Time =    1.000,"PART-1-1",          1385,  -20.0000E-03,  -450.000E-03,       2.80000,NA,NA,"",  -20.0000E-03,  -450.000E-03,       2.80000,   39.1134E-03
C:/Users/touze/project/Shear_centre/strip/Job-1.odb,loading,Increment      1: Step Time =    1.000,"PART-1-1",          1386,  -20.0000E-03,     -500.E-03,       2.80000,NA,NA,"",  -20.0000E-03,     -500.E-03,       2.80000,   31.9679E-03
C:/Users/touze/project/Shear_centre/strip/Job-1.odb,loading,Increment      1: Step Time =    1.000,"PART-1-1",            86,   20.0000E-03,   450.000E-03,       2.80000,NA,NA,"",   20.0000E-03,   450.000E-03,       2.80000,   39.1134E-03
C:/Users/touze/project/Shear_centre/strip/Job-1.odb,loading,Increment      1: Step Time =    1.000,"PART-1-1",          1365,  -20.0000E-03,     -500.E-03,       2.85000,NA,NA,"",  -20.0000E-03,     -500.E-03,       2.85000,   22.9300E-03
C:/Users/touze/project/Shear_centre/strip/Job-1.odb,loading,Increment      1: Step Time =    1.000,"PART-1-1",          1364,  -20.0000E-03,  -450.000E-03,       2.85000,NA,NA,"",  -20.0000E-03,  -450.000E-03,       2.85000,   33.0247E-03
C:/Users/touze/project/Shear_centre/strip/Job-1.odb,loading,Increment      1: Step Time =    1.000,"PART-1-1",          1363,  -20.0000E-03,  -400.000E-03,       2.85000,NA,NA,"",  -20.0000E-03,  -400.000E-03,       2.85000,   44.9644E-03
C:/Users/touze/project/Shear_centre/strip/Job-1.odb,loading,Increment      1: Step Time =    1.000,"PART-1-1",          1362,  -20.0000E-03,  -350.000E-03,       2.85000,NA,NA,"",  -20.0000E-03,  -350.000E-03,       2.85000,   50.3551E-03
C:/Users/touze/project/Shear_centre/strip/Job-1.odb,loading,Increment      1: Step Time =    1.000,"PART-1-1",          1361,  -20.0000E-03,  -300.000E-03,       2.85000,NA,NA,"",  -20.0000E-03,  -300.000E-03,       2.85000,   54.8662E-03
C:/Users/touze/project/Shear_centre/strip/Job-1.odb,loading,Increment      1: Step Time =    1.000,"PART-1-1",          1360,  -20.0000E-03,     -250.E-03,       2.85000,NA,NA,"",  -20.0000E-03,     -250.E-03,       2.85000,   55.5849E-03
C:/Users/touze/project/Shear_centre/strip/Job-1.odb,loading,Increment      1: Step Time =    1.000,"PART-1-1",          1359,  -20.0000E-03,  -200.000E-03,       2.85000,NA,NA,"",  -20.0000E-03,  -200.000E-03,       2.85000,   53.1873E-03
C:/Users/touze/project/Shear_centre/strip/Job-1.odb,loading,Increment      1: Step Time =    1.000,"PART-1-1",          1358,  -20.0000E-03,  -150.000E-03,       2.85000,NA,NA,"",  -20.0000E-03,  -150.000E-03,       2.85000,   47.8820E-03
C:/Users/touze/project/Shear_centre/strip/Job-1.odb,loading,Increment      1: Step Time =    1.000,"PART-1-1",          1357,  -20.0000E-03,  -100.000E-03,       2.85000,NA,NA,"",  -20.0000E-03,  -100.000E-03,       2.85000,   40.9824E-03
C:/Users/touze/project/Shear_centre/strip/Job-1.odb,loading,Increment      1: Step Time =    1.000,"PART-1-1",          1356,  -20.0000E-03,  -50.0000E-03,       2.85000,NA,NA,"",  -20.0000E-03,  -50.0000E-03,       2.85000,   34.6751E-03
C:/Users/touze/project/Shear_centre/strip/Job-1.odb,loading,Increment      1: Step Time =    1.000,"PART-1-1",          1355,  -20.0000E-03,            0.,       2.85000,NA,NA,"",  -20.0000E-03,            0.,       2.85000,   32.1128E-03
C:/Users/touze/project/Shear_centre/strip/Job-1.odb,loading,Increment      1: Step Time =    1.000,"PART-1-1",          1354,  -20.0000E-03,   50.0000E-03,       2.85000,NA,NA,"",  -20.0000E-03,   50.0000E-03,       2.85000,   34.6751E-03
C:/Users/touze/project/Shear_centre/strip/Job-1.odb,loading,Increment      1: Step Time =    1.000,"PART-1-1",          1353,  -20.0000E-03,   100.000E-03,       2.85000,NA,NA,"",  -20.0000E-03,   100.000E-03,       2.85000,   40.9824E-03
C:/Users/touze/project/Shear_centre/strip/Job-1.odb,loading,Increment      1: Step Time =    1.000,"PART-1-1",          1352,  -20.0000E-03,   150.000E-03,       2.85000,NA,NA,"",  -20.0000E-03,   150.000E-03,       2.85000,   47.8820E-03
C:/Users/touze/project/Shear_centre/strip/Job-1.odb,loading,Increment      1: Step Time =    1.000,"PART-1-1",          1351,  -20.0000E-03,   200.000E-03,       2.85000,NA,NA,"",  -20.0000E-03,   200.000E-03,       2.85000,   53.1873E-03
C:/Users/touze/project/Shear_centre/strip/Job-1.odb,loading,Increment      1: Step Time =    1.000,"PART-1-1",          1350,  -20.0000E-03,      250.E-03,       2.85000,NA,NA,"",  -20.0000E-03,      250.E-03,       2.85000,   55.5849E-03
C:/Users/touze/project/Shear_centre/strip/Job-1.odb,loading,Increment      1: Step Time =    1.000,"PART-1-1",          1349,  -20.0000E-03,   300.000E-03,       2.85000,NA,NA,"",  -20.0000E-03,   300.000E-03,       2.85000,   54.8662E-03
C:/Users/touze/project/Shear_centre/strip/Job-1.odb,loading,Increment      1: Step Time =    1.000,"PART-1-1",          1348,  -20.0000E-03,   350.000E-03,       2.85000,NA,NA,"",  -20.0000E-03,   350.000E-03,       2.85000,   50.3552E-03
C:/Users/touze/project/Shear_centre/strip/Job-1.odb,loading,Increment      1: Step Time =    1.000,"PART-1-1",          1347,  -20.0000E-03,   400.000E-03,       2.85000,NA,NA,"",  -20.0000E-03,   400.000E-03,       2.85000,   44.9644E-03
C:/Users/touze/project/Shear_centre/strip/Job-1.odb,loading,Increment      1: Step Time =    1.000,"PART-1-1",          1346,  -20.0000E-03,   450.000E-03,       2.85000,NA,NA,"",  -20.0000E-03,   450.000E-03,       2.85000,   33.0247E-03
C:/Users/touze/project/Shear_centre/strip/Job-1.odb,loading,Increment      1: Step Time =    1.000,"PART-1-1",          1345,  -20.0000E-03,      500.E-03,       2.85000,NA,NA,"",  -20.0000E-03,      500.E-03,       2.85000,   22.9300E-03
C:/Users/touze/project/Shear_centre/strip/Job-1.odb,loading,Increment      1: Step Time =    1.000,"PART-1-1",            65,   20.0000E-03,   450.000E-03,       2.85000,NA,NA,"",   20.0000E-03,   450.000E-03,       2.85000,   33.0247E-03
C:/Users/touze/project/Shear_centre/strip/Job-1.odb,loading,Increment      1: Step Time =    1.000,"PART-1-1",            66,   20.0000E-03,   400.000E-03,       2.85000,NA,NA,"",   20.0000E-03,   400.000E-03,       2.85000,   44.9644E-03
C:/Users/touze/project/Shear_centre/strip/Job-1.odb,loading,Increment      1: Step Time =    1.000,"PART-1-1",            67,   20.0000E-03,   350.000E-03,       2.85000,NA,NA,"",   20.0000E-03,   350.000E-03,       2.85000,   50.3552E-03
C:/Users/touze/project/Shear_centre/strip/Job-1.odb,loading,Increment      1: Step Time =    1.000,"PART-1-1",            68,   20.0000E-03,   300.000E-03,       2.85000,NA,NA,"",   20.0000E-03,   300.000E-03,       2.85000,   54.8662E-03
C:/Users/touze/project/Shear_centre/strip/Job-1.odb,loading,Increment      1: Step Time =    1.000,"PART-1-1",            69,   20.0000E-03,      250.E-03,       2.85000,NA,NA,"",   20.0000E-03,      250.E-03,       2.85000,   55.5849E-03
C:/Users/touze/project/Shear_centre/strip/Job-1.odb,loading,Increment      1: Step Time =    1.000,"PART-1-1",            70,   20.0000E-03,   200.000E-03,       2.85000,NA,NA,"",   20.0000E-03,   200.000E-03,       2.85000,   53.1873E-03
C:/Users/touze/project/Shear_centre/strip/Job-1.odb,loading,Increment      1: Step Time =    1.000,"PART-1-1",            71,   20.0000E-03,   150.000E-03,       2.85000,NA,NA,"",   20.0000E-03,   150.000E-03,       2.85000,   47.8820E-03
C:/Users/touze/project/Shear_centre/strip/Job-1.odb,loading,Increment      1: Step Time =    1.000,"PART-1-1",            72,   20.0000E-03,   100.000E-03,       2.85000,NA,NA,"",   20.0000E-03,   100.000E-03,       2.85000,   40.9824E-03
C:/Users/touze/project/Shear_centre/strip/Job-1.odb,loading,Increment      1: Step Time =    1.000,"PART-1-1",            73,   20.0000E-03,   50.0000E-03,       2.85000,NA,NA,"",   20.0000E-03,   50.0000E-03,       2.85000,   34.6751E-03
C:/Users/touze/project/Shear_centre/strip/Job-1.odb,loading,Increment      1: Step Time =    1.000,"PART-1-1",            74,   20.0000E-03,            0.,       2.85000,NA,NA,"",   20.0000E-03,            0.,       2.85000,   32.1128E-03
C:/Users/touze/project/Shear_centre/strip/Job-1.odb,loading,Increment      1: Step Time =    1.000,"PART-1-1",            64,   20.0000E-03,      500.E-03,       2.85000,NA,NA,"",   20.0000E-03,      500.E-03,       2.85000,   22.9300E-03
C:/Users/touze/project/Shear_centre/strip/Job-1.odb,loading,Increment      1: Step Time =    1.000,"PART-1-1",            75,   20.0000E-03,  -50.0000E-03,       2.85000,NA,NA,"",   20.0000E-03,  -50.0000E-03,       2.85000,   34.6751E-03
C:/Users/touze/project/Shear_centre/strip/Job-1.odb,loading,Increment      1: Step Time =    1.000,"PART-1-1",            76,   20.0000E-03,  -100.000E-03,       2.85000,NA,NA,"",   20.0000E-03,  -100.000E-03,       2.85000,   40.9824E-03
C:/Users/touze/project/Shear_centre/strip/Job-1.odb,loading,Increment      1: Step Time =    1.000,"PART-1-1",            77,   20.0000E-03,  -150.000E-03,       2.85000,NA,NA,"",   20.0000E-03,  -150.000E-03,       2.85000,   47.8820E-03
C:/Users/touze/project/Shear_centre/strip/Job-1.odb,loading,Increment      1: Step Time =    1.000,"PART-1-1",            78,   20.0000E-03,  -200.000E-03,       2.85000,NA,NA,"",   20.0000E-03,  -200.000E-03,       2.85000,   53.1873E-03
C:/Users/touze/project/Shear_centre/strip/Job-1.odb,loading,Increment      1: Step Time =    1.000,"PART-1-1",            79,   20.0000E-03,     -250.E-03,       2.85000,NA,NA,"",   20.0000E-03,     -250.E-03,       2.85000,   55.5849E-03
C:/Users/touze/project/Shear_centre/strip/Job-1.odb,loading,Increment      1: Step Time =    1.000,"PART-1-1",            80,   20.0000E-03,  -300.000E-03,       2.85000,NA,NA,"",   20.0000E-03,  -300.000E-03,       2.85000,   54.8662E-03
C:/Users/touze/project/Shear_centre/strip/Job-1.odb,loading,Increment      1: Step Time =    1.000,"PART-1-1",            81,   20.0000E-03,  -350.000E-03,       2.85000,NA,NA,"",   20.0000E-03,  -350.000E-03,       2.85000,   50.3551E-03
C:/Users/touze/project/Shear_centre/strip/Job-1.odb,loading,Increment      1: Step Time =    1.000,"PART-1-1",            82,   20.0000E-03,  -400.000E-03,       2.85000,NA,NA,"",   20.0000E-03,  -400.000E-03,       2.85000,   44.9644E-03
C:/Users/touze/project/Shear_centre/strip/Job-1.odb,loading,Increment      1: Step Time =    1.000,"PART-1-1",            83,   20.0000E-03,  -450.000E-03,       2.85000,NA,NA,"",   20.0000E-03,  -450.000E-03,       2.85000,   33.0247E-03
C:/Users/touze/project/Shear_centre/strip/Job-1.odb,loading,Increment      1: Step Time =    1.000,"PART-1-1",            84,   20.0000E-03,     -500.E-03,       2.85000,NA,NA,"",   20.0000E-03,     -500.E-03,       2.85000,   22.9300E-03
C:/Users/touze/project/Shear_centre/strip/Job-1.odb,loading,Increment      1: Step Time =    1.000,"PART-1-1",          1324,  -20.0000E-03,      500.E-03,       2.90000,NA,NA,"",  -20.0000E-03,      500.E-03,       2.90000,   16.3037E-03
C:/Users/touze/project/Shear_centre/strip/Job-1.odb,loading,Increment      1: Step Time =    1.000,"PART-1-1",          1325,  -20.0000E-03,   450.000E-03,       2.90000,NA,NA,"",  -20.0000E-03,   450.000E-03,       2.90000,   27.9131E-03
C:/Users/touze/project/Shear_centre/strip/Job-1.odb,loading,Increment      1: Step Time =    1.000,"PART-1-1",          1326,  -20.0000E-03,   400.000E-03,       2.90000,NA,NA,"",  -20.0000E-03,   400.000E-03,       2.90000,   43.8117E-03
C:/Users/touze/project/Shear_centre/strip/Job-1.odb,loading,Increment      1: Step Time =    1.000,"PART-1-1",          1327,  -20.0000E-03,   350.000E-03,       2.90000,NA,NA,"",  -20.0000E-03,   350.000E-03,       2.90000,   51.7471E-03
C:/Users/touze/project/Shear_centre/strip/Job-1.odb,loading,Increment      1: Step Time =    1.000,"PART-1-1",          1328,  -20.0000E-03,   300.000E-03,       2.90000,NA,NA,"",  -20.0000E-03,   300.000E-03,       2.90000,   56.5288E-03
C:/Users/touze/project/Shear_centre/strip/Job-1.odb,loading,Increment      1: Step Time =    1.000,"PART-1-1",          1329,  -20.0000E-03,      250.E-03,       2.90000,NA,NA,"",  -20.0000E-03,      250.E-03,       2.90000,   57.1174E-03
C:/Users/touze/project/Shear_centre/strip/Job-1.odb,loading,Increment      1: Step Time =    1.000,"PART-1-1",          1330,  -20.0000E-03,   200.000E-03,       2.90000,NA,NA,"",  -20.0000E-03,   200.000E-03,       2.90000,   54.2066E-03
C:/Users/touze/project/Shear_centre/strip/Job-1.odb,loading,Increment      1: Step Time =    1.000,"PART-1-1",          1331,  -20.0000E-03,   150.000E-03,       2.90000,NA,NA,"",  -20.0000E-03,   150.000E-03,       2.90000,   48.4803E-03
C:/Users/touze/project/Shear_centre/strip/Job-1.odb,loading,Increment      1: Step Time =    1.000,"PART-1-1",          1332,  -20.0000E-03,   100.000E-03,       2.90000,NA,NA,"",  -20.0000E-03,   100.000E-03,       2.90000,   41.1476E-03
C:/Users/touze/project/Shear_centre/strip/Job-1.odb,loading,Increment      1: Step Time =    1.000,"PART-1-1",          1333,  -20.0000E-03,   50.0000E-03,       2.90000,NA,NA,"",  -20.0000E-03,   50.0000E-03,       2.90000,   34.4591E-03
C:/Users/touze/project/Shear_centre/strip/Job-1.odb,loading,Increment      1: Step Time =    1.000,"PART-1-1",          1335,  -20.0000E-03,  -50.0000E-03,       2.90000,NA,NA,"",  -20.0000E-03,  -50.0000E-03,       2.90000,   34.4591E-03
C:/Users/touze/project/Shear_centre/strip/Job-1.odb,loading,Increment      1: Step Time =    1.000,"PART-1-1",          1336,  -20.0000E-03,  -100.000E-03,       2.90000,NA,NA,"",  -20.0000E-03,  -100.000E-03,       2.90000,   41.1476E-03
C:/Users/touze/project/Shear_centre/strip/Job-1.odb,loading,Increment      1: Step Time =    1.000,"PART-1-1",          1337,  -20.0000E-03,  -150.000E-03,       2.90000,NA,NA,"",  -20.0000E-03,  -150.000E-03,       2.90000,   48.4803E-03
C:/Users/touze/project/Shear_centre/strip/Job-1.odb,loading,Increment      1: Step Time =    1.000,"PART-1-1",          1338,  -20.0000E-03,  -200.000E-03,       2.90000,NA,NA,"",  -20.0000E-03,  -200.000E-03,       2.90000,   54.2066E-03
C:/Users/touze/project/Shear_centre/strip/Job-1.odb,loading,Increment      1: Step Time =    1.000,"PART-1-1",          1339,  -20.0000E-03,     -250.E-03,       2.90000,NA,NA,"",  -20.0000E-03,     -250.E-03,       2.90000,   57.1174E-03
C:/Users/touze/project/Shear_centre/strip/Job-1.odb,loading,Increment      1: Step Time =    1.000,"PART-1-1",          1340,  -20.0000E-03,  -300.000E-03,       2.90000,NA,NA,"",  -20.0000E-03,  -300.000E-03,       2.90000,   56.5288E-03
C:/Users/touze/project/Shear_centre/strip/Job-1.odb,loading,Increment      1: Step Time =    1.000,"PART-1-1",          1341,  -20.0000E-03,  -350.000E-03,       2.90000,NA,NA,"",  -20.0000E-03,  -350.000E-03,       2.90000,   51.7471E-03
C:/Users/touze/project/Shear_centre/strip/Job-1.odb,loading,Increment      1: Step Time =    1.000,"PART-1-1",          1342,  -20.0000E-03,  -400.000E-03,       2.90000,NA,NA,"",  -20.0000E-03,  -400.000E-03,       2.90000,   43.8117E-03
C:/Users/touze/project/Shear_centre/strip/Job-1.odb,loading,Increment      1: Step Time =    1.000,"PART-1-1",          1343,  -20.0000E-03,  -450.000E-03,       2.90000,NA,NA,"",  -20.0000E-03,  -450.000E-03,       2.90000,   27.9131E-03
C:/Users/touze/project/Shear_centre/strip/Job-1.odb,loading,Increment      1: Step Time =    1.000,"PART-1-1",          1344,  -20.0000E-03,     -500.E-03,       2.90000,NA,NA,"",  -20.0000E-03,     -500.E-03,       2.90000,   16.3037E-03
C:/Users/touze/project/Shear_centre/strip/Job-1.odb,loading,Increment      1: Step Time =    1.000,"PART-1-1",          1334,  -20.0000E-03,            0.,       2.90000,NA,NA,"",  -20.0000E-03,            0.,       2.90000,   31.7409E-03
C:/Users/touze/project/Shear_centre/strip/Job-1.odb,loading,Increment      1: Step Time =    1.000,"PART-1-1",            43,   20.0000E-03,      500.E-03,       2.90000,NA,NA,"",   20.0000E-03,      500.E-03,       2.90000,   16.3037E-03
C:/Users/touze/project/Shear_centre/strip/Job-1.odb,loading,Increment      1: Step Time =    1.000,"PART-1-1",            44,   20.0000E-03,   450.000E-03,       2.90000,NA,NA,"",   20.0000E-03,   450.000E-03,       2.90000,   27.9131E-03
C:/Users/touze/project/Shear_centre/strip/Job-1.odb,loading,Increment      1: Step Time =    1.000,"PART-1-1",            45,   20.0000E-03,   400.000E-03,       2.90000,NA,NA,"",   20.0000E-03,   400.000E-03,       2.90000,   43.8117E-03
C:/Users/touze/project/Shear_centre/strip/Job-1.odb,loading,Increment      1: Step Time =    1.000,"PART-1-1",            46,   20.0000E-03,   350.000E-03,       2.90000,NA,NA,"",   20.0000E-03,   350.000E-03,       2.90000,   51.7471E-03
C:/Users/touze/project/Shear_centre/strip/Job-1.odb,loading,Increment      1: Step Time =    1.000,"PART-1-1",            47,   20.0000E-03,   300.000E-03,       2.90000,NA,NA,"",   20.0000E-03,   300.000E-03,       2.90000,   56.5288E-03
C:/Users/touze/project/Shear_centre/strip/Job-1.odb,loading,Increment      1: Step Time =    1.000,"PART-1-1",            48,   20.0000E-03,      250.E-03,       2.90000,NA,NA,"",   20.0000E-03,      250.E-03,       2.90000,   57.1174E-03
C:/Users/touze/project/Shear_centre/strip/Job-1.odb,loading,Increment      1: Step Time =    1.000,"PART-1-1",            49,   20.0000E-03,   200.000E-03,       2.90000,NA,NA,"",   20.0000E-03,   200.000E-03,       2.90000,   54.2066E-03
C:/Users/touze/project/Shear_centre/strip/Job-1.odb,loading,Increment      1: Step Time =    1.000,"PART-1-1",            50,   20.0000E-03,   150.000E-03,       2.90000,NA,NA,"",   20.0000E-03,   150.000E-03,       2.90000,   48.4803E-03
C:/Users/touze/project/Shear_centre/strip/Job-1.odb,loading,Increment      1: Step Time =    1.000,"PART-1-1",            51,   20.0000E-03,   100.000E-03,       2.90000,NA,NA,"",   20.0000E-03,   100.000E-03,       2.90000,   41.1476E-03
C:/Users/touze/project/Shear_centre/strip/Job-1.odb,loading,Increment      1: Step Time =    1.000,"PART-1-1",            52,   20.0000E-03,   50.0000E-03,       2.90000,NA,NA,"",   20.0000E-03,   50.0000E-03,       2.90000,   34.4591E-03
C:/Users/touze/project/Shear_centre/strip/Job-1.odb,loading,Increment      1: Step Time =    1.000,"PART-1-1",            53,   20.0000E-03,            0.,       2.90000,NA,NA,"",   20.0000E-03,            0.,       2.90000,   31.7409E-03
C:/Users/touze/project/Shear_centre/strip/Job-1.odb,loading,Increment      1: Step Time =    1.000,"PART-1-1",            54,   20.0000E-03,  -50.0000E-03,       2.90000,NA,NA,"",   20.0000E-03,  -50.0000E-03,       2.90000,   34.4591E-03
C:/Users/touze/project/Shear_centre/strip/Job-1.odb,loading,Increment      1: Step Time =    1.000,"PART-1-1",            55,   20.0000E-03,  -100.000E-03,       2.90000,NA,NA,"",   20.0000E-03,  -100.000E-03,       2.90000,   41.1476E-03
C:/Users/touze/project/Shear_centre/strip/Job-1.odb,loading,Increment      1: Step Time =    1.000,"PART-1-1",            56,   20.0000E-03,  -150.000E-03,       2.90000,NA,NA,"",   20.0000E-03,  -150.000E-03,       2.90000,   48.4803E-03
C:/Users/touze/project/Shear_centre/strip/Job-1.odb,loading,Increment      1: Step Time =    1.000,"PART-1-1",            57,   20.0000E-03,  -200.000E-03,       2.90000,NA,NA,"",   20.0000E-03,  -200.000E-03,       2.90000,   54.2066E-03
C:/Users/touze/project/Shear_centre/strip/Job-1.odb,loading,Increment      1: Step Time =    1.000,"PART-1-1",            58,   20.0000E-03,     -250.E-03,       2.90000,NA,NA,"",   20.0000E-03,     -250.E-03,       2.90000,   57.1174E-03
C:/Users/touze/project/Shear_centre/strip/Job-1.odb,loading,Increment      1: Step Time =    1.000,"PART-1-1",            59,   20.0000E-03,  -300.000E-03,       2.90000,NA,NA,"",   20.0000E-03,  -300.000E-03,       2.90000,   56.5288E-03
C:/Users/touze/project/Shear_centre/strip/Job-1.odb,loading,Increment      1: Step Time =    1.000,"PART-1-1",            60,   20.0000E-03,  -350.000E-03,       2.90000,NA,NA,"",   20.0000E-03,  -350.000E-03,       2.90000,   51.7471E-03
C:/Users/touze/project/Shear_centre/strip/Job-1.odb,loading,Increment      1: Step Time =    1.000,"PART-1-1",            61,   20.0000E-03,  -400.000E-03,       2.90000,NA,NA,"",   20.0000E-03,  -400.000E-03,       2.90000,   43.8117E-03
C:/Users/touze/project/Shear_centre/strip/Job-1.odb,loading,Increment      1: Step Time =    1.000,"PART-1-1",            62,   20.0000E-03,  -450.000E-03,       2.90000,NA,NA,"",   20.0000E-03,  -450.000E-03,       2.90000,   27.9131E-03
C:/Users/touze/project/Shear_centre/strip/Job-1.odb,loading,Increment      1: Step Time =    1.000,"PART-1-1",            63,   20.0000E-03,     -500.E-03,       2.90000,NA,NA,"",   20.0000E-03,     -500.E-03,       2.90000,   16.3037E-03
C:/Users/touze/project/Shear_centre/strip/Job-1.odb,loading,Increment      1: Step Time =    1.000,"PART-1-1",            22,   20.0000E-03,      500.E-03,       2.95000,NA,NA,"",   20.0000E-03,      500.E-03,       2.95000,   7.86400E-03
C:/Users/touze/project/Shear_centre/strip/Job-1.odb,loading,Increment      1: Step Time =    1.000,"PART-1-1",            23,   20.0000E-03,   450.000E-03,       2.95000,NA,NA,"",   20.0000E-03,   450.000E-03,       2.95000,   14.8152E-03
C:/Users/touze/project/Shear_centre/strip/Job-1.odb,loading,Increment      1: Step Time =    1.000,"PART-1-1",            24,   20.0000E-03,   400.000E-03,       2.95000,NA,NA,"",   20.0000E-03,   400.000E-03,       2.95000,   29.6445E-03
C:/Users/touze/project/Shear_centre/strip/Job-1.odb,loading,Increment      1: Step Time =    1.000,"PART-1-1",            25,   20.0000E-03,   350.000E-03,       2.95000,NA,NA,"",   20.0000E-03,   350.000E-03,       2.95000,   45.8089E-03
C:/Users/touze/project/Shear_centre/strip/Job-1.odb,loading,Increment      1: Step Time =    1.000,"PART-1-1",            26,   20.0000E-03,   300.000E-03,       2.95000,NA,NA,"",   20.0000E-03,   300.000E-03,       2.95000,   64.4656E-03
C:/Users/touze/project/Shear_centre/strip/Job-1.odb,loading,Increment      1: Step Time =    1.000,"PART-1-1",            27,   20.0000E-03,      250.E-03,       2.95000,NA,NA,"",   20.0000E-03,      250.E-03,       2.95000,   83.7683E-03
C:/Users/touze/project/Shear_centre/strip/Job-1.odb,loading,Increment      1: Step Time =    1.000,"PART-1-1",            28,   20.0000E-03,   200.000E-03,       2.95000,NA,NA,"",   20.0000E-03,   200.000E-03,       2.95000,   101.139E-03
C:/Users/touze/project/Shear_centre/strip/Job-1.odb,loading,Increment      1: Step Time =    1.000,"PART-1-1",            29,   20.0000E-03,   150.000E-03,       2.95000,NA,NA,"",   20.0000E-03,   150.000E-03,       2.95000,   115.606E-03
C:/Users/touze/project/Shear_centre/strip/Job-1.odb,loading,Increment      1: Step Time =    1.000,"PART-1-1",            30,   20.0000E-03,   100.000E-03,       2.95000,NA,NA,"",   20.0000E-03,   100.000E-03,       2.95000,   125.432E-03
C:/Users/touze/project/Shear_centre/strip/Job-1.odb,loading,Increment      1: Step Time =    1.000,"PART-1-1",            31,   20.0000E-03,   50.0000E-03,       2.95000,NA,NA,"",   20.0000E-03,   50.0000E-03,       2.95000,   130.697E-03
C:/Users/touze/project/Shear_centre/strip/Job-1.odb,loading,Increment      1: Step Time =    1.000,"PART-1-1",            32,   20.0000E-03,            0.,       2.95000,NA,NA,"",   20.0000E-03,            0.,       2.95000,   132.163E-03
C:/Users/touze/project/Shear_centre/strip/Job-1.odb,loading,Increment      1: Step Time =    1.000,"PART-1-1",            33,   20.0000E-03,  -50.0000E-03,       2.95000,NA,NA,"",   20.0000E-03,  -50.0000E-03,       2.95000,   130.697E-03
C:/Users/touze/project/Shear_centre/strip/Job-1.odb,loading,Increment      1: Step Time =    1.000,"PART-1-1",            34,   20.0000E-03,  -100.000E-03,       2.95000,NA,NA,"",   20.0000E-03,  -100.000E-03,       2.95000,   125.432E-03
C:/Users/touze/project/Shear_centre/strip/Job-1.odb,loading,Increment      1: Step Time =    1.000,"PART-1-1",            35,   20.0000E-03,  -150.000E-03,       2.95000,NA,NA,"",   20.0000E-03,  -150.000E-03,       2.95000,   115.606E-03
C:/Users/touze/project/Shear_centre/strip/Job-1.odb,loading,Increment      1: Step Time =    1.000,"PART-1-1",            36,   20.0000E-03,  -200.000E-03,       2.95000,NA,NA,"",   20.0000E-03,  -200.000E-03,       2.95000,   101.139E-03
C:/Users/touze/project/Shear_centre/strip/Job-1.odb,loading,Increment      1: Step Time =    1.000,"PART-1-1",            37,   20.0000E-03,     -250.E-03,       2.95000,NA,NA,"",   20.0000E-03,     -250.E-03,       2.95000,   83.7683E-03
C:/Users/touze/project/Shear_centre/strip/Job-1.odb,loading,Increment      1: Step Time =    1.000,"PART-1-1",            38,   20.0000E-03,  -300.000E-03,       2.95000,NA,NA,"",   20.0000E-03,  -300.000E-03,       2.95000,   64.4656E-03
C:/Users/touze/project/Shear_centre/strip/Job-1.odb,loading,Increment      1: Step Time =    1.000,"PART-1-1",            39,   20.0000E-03,  -350.000E-03,       2.95000,NA,NA,"",   20.0000E-03,  -350.000E-03,       2.95000,   45.8089E-03
C:/Users/touze/project/Shear_centre/strip/Job-1.odb,loading,Increment      1: Step Time =    1.000,"PART-1-1",            40,   20.0000E-03,  -400.000E-03,       2.95000,NA,NA,"",   20.0000E-03,  -400.000E-03,       2.95000,   29.6445E-03
C:/Users/touze/project/Shear_centre/strip/Job-1.odb,loading,Increment      1: Step Time =    1.000,"PART-1-1",            41,   20.0000E-03,  -450.000E-03,       2.95000,NA,NA,"",   20.0000E-03,  -450.000E-03,       2.95000,   14.8152E-03
C:/Users/touze/project/Shear_centre/strip/Job-1.odb,loading,Increment      1: Step Time =    1.000,"PART-1-1",            42,   20.0000E-03,     -500.E-03,       2.95000,NA,NA,"",   20.0000E-03,     -500.E-03,       2.95000,   7.86400E-03
C:/Users/touze/project/Shear_centre/strip/Job-1.odb,loading,Increment      1: Step Time =    1.000,"PART-1-1",          1304,  -20.0000E-03,   450.000E-03,       2.95000,NA,NA,"",  -20.0000E-03,   450.000E-03,       2.95000,   14.8152E-03
C:/Users/touze/project/Shear_centre/strip/Job-1.odb,loading,Increment      1: Step Time =    1.000,"PART-1-1",          1305,  -20.0000E-03,   400.000E-03,       2.95000,NA,NA,"",  -20.0000E-03,   400.000E-03,       2.95000,   29.6445E-03
C:/Users/touze/project/Shear_centre/strip/Job-1.odb,loading,Increment      1: Step Time =    1.000,"PART-1-1",          1306,  -20.0000E-03,   350.000E-03,       2.95000,NA,NA,"",  -20.0000E-03,   350.000E-03,       2.95000,   45.8089E-03
C:/Users/touze/project/Shear_centre/strip/Job-1.odb,loading,Increment      1: Step Time =    1.000,"PART-1-1",          1307,  -20.0000E-03,   300.000E-03,       2.95000,NA,NA,"",  -20.0000E-03,   300.000E-03,       2.95000,   64.4656E-03
C:/Users/touze/project/Shear_centre/strip/Job-1.odb,loading,Increment      1: Step Time =    1.000,"PART-1-1",          1308,  -20.0000E-03,      250.E-03,       2.95000,NA,NA,"",  -20.0000E-03,      250.E-03,       2.95000,   83.7683E-03
C:/Users/touze/project/Shear_centre/strip/Job-1.odb,loading,Increment      1: Step Time =    1.000,"PART-1-1",          1309,  -20.0000E-03,   200.000E-03,       2.95000,NA,NA,"",  -20.0000E-03,   200.000E-03,       2.95000,   101.139E-03
C:/Users/touze/project/Shear_centre/strip/Job-1.odb,loading,Increment      1: Step Time =    1.000,"PART-1-1",          1310,  -20.0000E-03,   150.000E-03,       2.95000,NA,NA,"",  -20.0000E-03,   150.000E-03,       2.95000,   115.606E-03
C:/Users/touze/project/Shear_centre/strip/Job-1.odb,loading,Increment      1: Step Time =    1.000,"PART-1-1",          1311,  -20.0000E-03,   100.000E-03,       2.95000,NA,NA,"",  -20.0000E-03,   100.000E-03,       2.95000,   125.432E-03
C:/Users/touze/project/Shear_centre/strip/Job-1.odb,loading,Increment      1: Step Time =    1.000,"PART-1-1",          1312,  -20.0000E-03,   50.0000E-03,       2.95000,NA,NA,"",  -20.0000E-03,   50.0000E-03,       2.95000,   130.697E-03
C:/Users/touze/project/Shear_centre/strip/Job-1.odb,loading,Increment      1: Step Time =    1.000,"PART-1-1",          1313,  -20.0000E-03,            0.,       2.95000,NA,NA,"",  -20.0000E-03,            0.,       2.95000,   132.163E-03
C:/Users/touze/project/Shear_centre/strip/Job-1.odb,loading,Increment      1: Step Time =    1.000,"PART-1-1",          1314,  -20.0000E-03,  -50.0000E-03,       2.95000,NA,NA,"",  -20.0000E-03,  -50.0000E-03,       2.95000,   130.697E-03
C:/Users/touze/project/Shear_centre/strip/Job-1.odb,loading,Increment      1: Step Time =    1.000,"PART-1-1",          1315,  -20.0000E-03,  -100.000E-03,       2.95000,NA,NA,"",  -20.0000E-03,  -100.000E-03,       2.95000,   125.432E-03
C:/Users/touze/project/Shear_centre/strip/Job-1.odb,loading,Increment      1: Step Time =    1.000,"PART-1-1",          1316,  -20.0000E-03,  -150.000E-03,       2.95000,NA,NA,"",  -20.0000E-03,  -150.000E-03,       2.95000,   115.606E-03
C:/Users/touze/project/Shear_centre/strip/Job-1.odb,loading,Increment      1: Step Time =    1.000,"PART-1-1",          1317,  -20.0000E-03,  -200.000E-03,       2.95000,NA,NA,"",  -20.0000E-03,  -200.000E-03,       2.95000,   101.139E-03
C:/Users/touze/project/Shear_centre/strip/Job-1.odb,loading,Increment      1: Step Time =    1.000,"PART-1-1",          1318,  -20.0000E-03,     -250.E-03,       2.95000,NA,NA,"",  -20.0000E-03,     -250.E-03,       2.95000,   83.7683E-03
C:/Users/touze/project/Shear_centre/strip/Job-1.odb,loading,Increment      1: Step Time =    1.000,"PART-1-1",          1319,  -20.0000E-03,  -300.000E-03,       2.95000,NA,NA,"",  -20.0000E-03,  -300.000E-03,       2.95000,   64.4656E-03
C:/Users/touze/project/Shear_centre/strip/Job-1.odb,loading,Increment      1: Step Time =    1.000,"PART-1-1",          1320,  -20.0000E-03,  -350.000E-03,       2.95000,NA,NA,"",  -20.0000E-03,  -350.000E-03,       2.95000,   45.8089E-03
C:/Users/touze/project/Shear_centre/strip/Job-1.odb,loading,Increment      1: Step Time =    1.000,"PART-1-1",          1321,  -20.0000E-03,  -400.000E-03,       2.95000,NA,NA,"",  -20.0000E-03,  -400.000E-03,       2.95000,   29.6445E-03
C:/Users/touze/project/Shear_centre/strip/Job-1.odb,loading,Increment      1: Step Time =    1.000,"PART-1-1",          1322,  -20.0000E-03,  -450.000E-03,       2.95000,NA,NA,"",  -20.0000E-03,  -450.000E-03,       2.95000,   14.8152E-03
C:/Users/touze/project/Shear_centre/strip/Job-1.odb,loading,Increment      1: Step Time =    1.000,"PART-1-1",          1323,  -20.0000E-03,     -500.E-03,       2.95000,NA,NA,"",  -20.0000E-03,     -500.E-03,       2.95000,   7.86400E-03
C:/Users/touze/project/Shear_centre/strip/Job-1.odb,loading,Increment      1: Step Time =    1.000,"PART-1-1",          1303,  -20.0000E-03,      500.E-03,       2.95000,NA,NA,"",  -20.0000E-03,      500.E-03,       2.95000,   7.86400E-03
C:/Users/touze/project/Shear_centre/strip/Job-1.odb,loading,Increment      1: Step Time =    1.000,"PART-1-1",          1301,  -20.0000E-03,  -450.000E-03,            3.,NA,NA,"",  -20.0000E-03,  -450.000E-03,            3.,   7.55729E-03
C:/Users/touze/project/Shear_centre/strip/Job-1.odb,loading,Increment      1: Step Time =    1.000,"PART-1-1",          1300,  -20.0000E-03,  -400.000E-03,            3.,NA,NA,"",  -20.0000E-03,  -400.000E-03,            3.,   19.3580E-03
C:/Users/touze/project/Shear_centre/strip/Job-1.odb,loading,Increment      1: Step Time =    1.000,"PART-1-1",          1299,  -20.0000E-03,  -350.000E-03,            3.,NA,NA,"",  -20.0000E-03,  -350.000E-03,            3.,   40.1260E-03
C:/Users/touze/project/Shear_centre/strip/Job-1.odb,loading,Increment      1: Step Time =    1.000,"PART-1-1",          1298,  -20.0000E-03,  -300.000E-03,            3.,NA,NA,"",  -20.0000E-03,  -300.000E-03,            3.,   71.1296E-03
C:/Users/touze/project/Shear_centre/strip/Job-1.odb,loading,Increment      1: Step Time =    1.000,"PART-1-1",          1297,  -20.0000E-03,     -250.E-03,            3.,NA,NA,"",  -20.0000E-03,     -250.E-03,            3.,   107.972E-03
C:/Users/touze/project/Shear_centre/strip/Job-1.odb,loading,Increment      1: Step Time =    1.000,"PART-1-1",          1296,  -20.0000E-03,  -200.000E-03,            3.,NA,NA,"",  -20.0000E-03,  -200.000E-03,            3.,   145.598E-03
C:/Users/touze/project/Shear_centre/strip/Job-1.odb,loading,Increment      1: Step Time =    1.000,"PART-1-1",          1295,  -20.0000E-03,  -150.000E-03,            3.,NA,NA,"",  -20.0000E-03,  -150.000E-03,            3.,   180.700E-03
C:/Users/touze/project/Shear_centre/strip/Job-1.odb,loading,Increment      1: Step Time =    1.000,"PART-1-1",          1294,  -20.0000E-03,  -100.000E-03,            3.,NA,NA,"",  -20.0000E-03,  -100.000E-03,            3.,   208.761E-03
C:/Users/touze/project/Shear_centre/strip/Job-1.odb,loading,Increment      1: Step Time =    1.000,"PART-1-1",          1293,  -20.0000E-03,  -50.0000E-03,            3.,NA,NA,"",  -20.0000E-03,  -50.0000E-03,            3.,   227.241E-03
C:/Users/touze/project/Shear_centre/strip/Job-1.odb,loading,Increment      1: Step Time =    1.000,"PART-1-1",          1292,  -20.0000E-03,            0.,            3.,NA,NA,"",  -20.0000E-03,            0.,            3.,   233.476E-03
C:/Users/touze/project/Shear_centre/strip/Job-1.odb,loading,Increment      1: Step Time =    1.000,"PART-1-1",          1291,  -20.0000E-03,   50.0000E-03,            3.,NA,NA,"",  -20.0000E-03,   50.0000E-03,            3.,   227.241E-03
C:/Users/touze/project/Shear_centre/strip/Job-1.odb,loading,Increment      1: Step Time =    1.000,"PART-1-1",          1290,  -20.0000E-03,   100.000E-03,            3.,NA,NA,"",  -20.0000E-03,   100.000E-03,            3.,   208.761E-03
C:/Users/touze/project/Shear_centre/strip/Job-1.odb,loading,Increment      1: Step Time =    1.000,"PART-1-1",          1289,  -20.0000E-03,   150.000E-03,            3.,NA,NA,"",  -20.0000E-03,   150.000E-03,            3.,   180.700E-03
C:/Users/touze/project/Shear_centre/strip/Job-1.odb,loading,Increment      1: Step Time =    1.000,"PART-1-1",          1288,  -20.0000E-03,   200.000E-03,            3.,NA,NA,"",  -20.0000E-03,   200.000E-03,            3.,   145.598E-03
C:/Users/touze/project/Shear_centre/strip/Job-1.odb,loading,Increment      1: Step Time =    1.000,"PART-1-1",          1287,  -20.0000E-03,      250.E-03,            3.,NA,NA,"",  -20.0000E-03,      250.E-03,            3.,   107.972E-03
C:/Users/touze/project/Shear_centre/strip/Job-1.odb,loading,Increment      1: Step Time =    1.000,"PART-1-1",          1286,  -20.0000E-03,   300.000E-03,            3.,NA,NA,"",  -20.0000E-03,   300.000E-03,            3.,   71.1296E-03
C:/Users/touze/project/Shear_centre/strip/Job-1.odb,loading,Increment      1: Step Time =    1.000,"PART-1-1",          1285,  -20.0000E-03,   350.000E-03,            3.,NA,NA,"",  -20.0000E-03,   350.000E-03,            3.,   40.1260E-03
C:/Users/touze/project/Shear_centre/strip/Job-1.odb,loading,Increment      1: Step Time =    1.000,"PART-1-1",          1284,  -20.0000E-03,   400.000E-03,            3.,NA,NA,"",  -20.0000E-03,   400.000E-03,            3.,   19.3580E-03
C:/Users/touze/project/Shear_centre/strip/Job-1.odb,loading,Increment      1: Step Time =    1.000,"PART-1-1",          1283,  -20.0000E-03,   450.000E-03,            3.,NA,NA,"",  -20.0000E-03,   450.000E-03,            3.,   7.55730E-03
C:/Users/touze/project/Shear_centre/strip/Job-1.odb,loading,Increment      1: Step Time =    1.000,"PART-1-1",          1282,  -20.0000E-03,      500.E-03,            3.,NA,NA,"",  -20.0000E-03,      500.E-03,            3.,   4.02469E-03
C:/Users/touze/project/Shear_centre/strip/Job-1.odb,loading,Increment      1: Step Time =    1.000,"PART-1-1",            21,   20.0000E-03,     -500.E-03,            3.,NA,NA,"",   20.0000E-03,     -500.E-03,            3.,   4.02468E-03
C:/Users/touze/project/Shear_centre/strip/Job-1.odb,loading,Increment      1: Step Time =    1.000,"PART-1-1",            20,   20.0000E-03,  -450.000E-03,            3.,NA,NA,"",   20.0000E-03,  -450.000E-03,            3.,   7.55729E-03
C:/Users/touze/project/Shear_centre/strip/Job-1.odb,loading,Increment      1: Step Time =    1.000,"PART-1-1",            19,   20.0000E-03,  -400.000E-03,            3.,NA,NA,"",   20.0000E-03,  -400.000E-03,            3.,   19.3580E-03
C:/Users/touze/project/Shear_centre/strip/Job-1.odb,loading,Increment      1: Step Time =    1.000,"PART-1-1",            18,   20.0000E-03,  -350.000E-03,            3.,NA,NA,"",   20.0000E-03,  -350.000E-03,            3.,   40.1260E-03
C:/Users/touze/project/Shear_centre/strip/Job-1.odb,loading,Increment      1: Step Time =    1.000,"PART-1-1",            17,   20.0000E-03,  -300.000E-03,            3.,NA,NA,"",   20.0000E-03,  -300.000E-03,            3.,   71.1296E-03
C:/Users/touze/project/Shear_centre/strip/Job-1.odb,loading,Increment      1: Step Time =    1.000,"PART-1-1",            16,   20.0000E-03,     -250.E-03,            3.,NA,NA,"",   20.0000E-03,     -250.E-03,            3.,   107.972E-03
C:/Users/touze/project/Shear_centre/strip/Job-1.odb,loading,Increment      1: Step Time =    1.000,"PART-1-1",            15,   20.0000E-03,  -200.000E-03,            3.,NA,NA,"",   20.0000E-03,  -200.000E-03,            3.,   145.598E-03
C:/Users/touze/project/Shear_centre/strip/Job-1.odb,loading,Increment      1: Step Time =    1.000,"PART-1-1",            14,   20.0000E-03,  -150.000E-03,            3.,NA,NA,"",   20.0000E-03,  -150.000E-03,            3.,   180.700E-03
C:/Users/touze/project/Shear_centre/strip/Job-1.odb,loading,Increment      1: Step Time =    1.000,"PART-1-1",            13,   20.0000E-03,  -100.000E-03,            3.,NA,NA,"",   20.0000E-03,  -100.000E-03,            3.,   208.761E-03
C:/Users/touze/project/Shear_centre/strip/Job-1.odb,loading,Increment      1: Step Time =    1.000,"PART-1-1",            12,   20.0000E-03,  -50.0000E-03,            3.,NA,NA,"",   20.0000E-03,  -50.0000E-03,            3.,   227.241E-03
C:/Users/touze/project/Shear_centre/strip/Job-1.odb,loading,Increment      1: Step Time =    1.000,"PART-1-1",            11,   20.0000E-03,            0.,            3.,NA,NA,"",   20.0000E-03,            0.,            3.,   233.476E-03
C:/Users/touze/project/Shear_centre/strip/Job-1.odb,loading,Increment      1: Step Time =    1.000,"PART-1-1",            10,   20.0000E-03,   50.0000E-03,            3.,NA,NA,"",   20.0000E-03,   50.0000E-03,            3.,   227.241E-03
C:/Users/touze/project/Shear_centre/strip/Job-1.odb,loading,Increment      1: Step Time =    1.000,"PART-1-1",             9,   20.0000E-03,   100.000E-03,            3.,NA,NA,"",   20.0000E-03,   100.000E-03,            3.,   208.761E-03
C:/Users/touze/project/Shear_centre/strip/Job-1.odb,loading,Increment      1: Step Time =    1.000,"PART-1-1",             8,   20.0000E-03,   150.000E-03,            3.,NA,NA,"",   20.0000E-03,   150.000E-03,            3.,   180.700E-03
C:/Users/touze/project/Shear_centre/strip/Job-1.odb,loading,Increment      1: Step Time =    1.000,"PART-1-1",             7,   20.0000E-03,   200.000E-03,            3.,NA,NA,"",   20.0000E-03,   200.000E-03,            3.,   145.598E-03
C:/Users/touze/project/Shear_centre/strip/Job-1.odb,loading,Increment      1: Step Time =    1.000,"PART-1-1",             6,   20.0000E-03,      250.E-03,            3.,NA,NA,"",   20.0000E-03,      250.E-03,            3.,   107.972E-03
C:/Users/touze/project/Shear_centre/strip/Job-1.odb,loading,Increment      1: Step Time =    1.000,"PART-1-1",             5,   20.0000E-03,   300.000E-03,            3.,NA,NA,"",   20.0000E-03,   300.000E-03,            3.,   71.1296E-03
C:/Users/touze/project/Shear_centre/strip/Job-1.odb,loading,Increment      1: Step Time =    1.000,"PART-1-1",             4,   20.0000E-03,   350.000E-03,            3.,NA,NA,"",   20.0000E-03,   350.000E-03,            3.,   40.1260E-03
C:/Users/touze/project/Shear_centre/strip/Job-1.odb,loading,Increment      1: Step Time =    1.000,"PART-1-1",             3,   20.0000E-03,   400.000E-03,            3.,NA,NA,"",   20.0000E-03,   400.000E-03,            3.,   19.3580E-03
C:/Users/touze/project/Shear_centre/strip/Job-1.odb,loading,Increment      1: Step Time =    1.000,"PART-1-1",             2,   20.0000E-03,   450.000E-03,            3.,NA,NA,"",   20.0000E-03,   450.000E-03,            3.,   7.55730E-03
C:/Users/touze/project/Shear_centre/strip/Job-1.odb,loading,Increment      1: Step Time =    1.000,"PART-1-1",          1302,  -20.0000E-03,     -500.E-03,            3.,NA,NA,"",  -20.0000E-03,     -500.E-03,            3.,   4.02468E-03
C:/Users/touze/project/Shear_centre/strip/Job-1.odb,loading,Increment      1: Step Time =    1.000,"PART-1-1",             1,   20.0000E-03,      500.E-03,            3.,NA,NA,"",   20.0000E-03,      500.E-03,            3.,   4.02469E-03
